     Program PWSCF v.7.1 starts on 25Oct2022 at 21: 1: 6
        Git branch: HEAD
        Last git commit: 564a7b486665e8dd0223d6e514b84195d1a96c10
        Last git commit date: Tue Jun 14 16:16:48 2022 +0000
        Last git commit subject: Merge branch 'update_version_number' into 'develop

     Reading input from scf.in

     Current dimensions of program PWSCF are:
     Max number of different atomic species (ntypx) = 10
     Max number of k-points (npk) =  40000
     Max angular momentum in pseudopotentials (lmaxx) =  4
     file N.pbe-n-kjpaw_psl.1.0.0.UPF: wavefunction(s)  2S renormalized
     Found identity + (  0.0000  0.1250  0.0000) symmetry
     This is a supercell, fractional translations are disabled
     Message from routine setup:
     using ibrav=0 with symmetry is DISCOURAGED, use correct ibrav instead

     R & G space division:  proc/nbgrp/npool/nimage =     128
     Subspace diagonalization in iterative solution of the eigenvalue problem:
     one sub-group per band group will be used

     Using Slab Decomposition

     bravais-lattice index     =            0
     lattice parameter (alat)  =      75.7265  a.u.
     unit-cell volume          =  281543.9584 (a.u.)^3
     number of atoms/cell      =          512
     number of atomic types    =            2
     number of electrons       =      2048.00
     number of Kohn-Sham states=         1045
     kinetic-energy cutoff     =      51.4490  Ry
     charge density cutoff     =     205.7961  Ry
     scf convergence threshold =      1.0E-06
     mixing beta               =       0.7000
     number of iterations used =            8  plain     mixing
     Exchange-correlation= SLA  PW   PBX  PBC
                           (   1   4   3   4   0   0   0)

     celldm(1)=  75.726466  celldm(2)=   0.000000  celldm(3)=   0.000000
     celldm(4)=   0.000000  celldm(5)=   0.000000  celldm(6)=   0.000000

     crystal axes: (cart. coord. in units of alat)
               a(1) = (   1.000000   0.000000   0.000000 )
               a(2) = (   0.000000   0.866026   0.000000 )
               a(3) = (   0.000000   0.000000   0.748639 )

     reciprocal axes: (cart. coord. in units 2 pi/alat)
               b(1) = (  1.000000  0.000000  0.000000 )
               b(2) = (  0.000000  1.154700  0.000000 )
               b(3) = (  0.000000  0.000000  1.335757 )

     PseudoPot. # 1 for B  read from file:
     ./B.pbe-n-kjpaw_psl.1.0.0.UPF
     MD5 check sum: 8c825a5969375aca5c2c6ad5945b3059
     Pseudo is Projector augmented-wave + core cor, Zval =  3.0
     Generated using &quot;atomic&quot; code by A. Dal Corso  v.6.3
     Shape of augmentation charge: PSQ
     Using radial grid of 1059 points,  4 beta functions with:
                l(1) =   0
                l(2) =   0
                l(3) =   1
                l(4) =   1
     Q(r) pseudized with 0 coefficients

     PseudoPot. # 2 for N  read from file:
     ./N.pbe-n-kjpaw_psl.1.0.0.UPF
     MD5 check sum: 14c48229446f9f2d411169a3abcbc3fa
     Pseudo is Projector augmented-wave + core cor, Zval =  5.0
     Generated using &quot;atomic&quot; code by A. Dal Corso  v.6.3
     Shape of augmentation charge: PSQ
     Using radial grid of 1085 points,  4 beta functions with:
                l(1) =   0
                l(2) =   0
                l(3) =   1
                l(4) =   1
     Q(r) pseudized with 0 coefficients

     atomic species   valence    mass     pseudopotential
        B              3.00    10.81100     B ( 1.00)
        N              5.00    14.00670     N ( 1.00)

      2 Sym. Ops. (no inversion) found

   Cartesian axes

     site n.     atom                  positions (alat units)
         1           B   tau(   1) = (   0.9687500   0.0180422   0.1497278  )
         2           B   tau(   2) = (   0.9687500   0.1262954   0.1497278  )
         3           B   tau(   3) = (   0.9687500   0.2345486   0.1497278  )
         4           B   tau(   4) = (   0.9687500   0.3428018   0.1497278  )
         5           B   tau(   5) = (   0.9687500   0.4510550   0.1497278  )
         6           B   tau(   6) = (   0.9687500   0.5593082   0.1497278  )
         7           B   tau(   7) = (   0.9687500   0.6675614   0.1497278  )
         8           B   tau(   8) = (   0.9687500   0.7758146   0.1497278  )
         9           B   tau(   9) = (   0.0937500   0.0180422   0.1497278  )
        10           B   tau(  10) = (   0.0937500   0.1262954   0.1497278  )
        11           B   tau(  11) = (   0.0937500   0.2345486   0.1497278  )
        12           B   tau(  12) = (   0.0937500   0.3428018   0.1497278  )
        13           B   tau(  13) = (   0.0937500   0.4510550   0.1497278  )
        14           B   tau(  14) = (   0.0937500   0.5593082   0.1497278  )
        15           B   tau(  15) = (   0.0937500   0.6675614   0.1497278  )
        16           B   tau(  16) = (   0.0937500   0.7758146   0.1497278  )
        17           B   tau(  17) = (   0.2187500   0.0180422   0.1497278  )
        18           B   tau(  18) = (   0.2187500   0.1262954   0.1497278  )
        19           B   tau(  19) = (   0.2187500   0.2345486   0.1497278  )
        20           B   tau(  20) = (   0.2187500   0.3428018   0.1497278  )
        21           B   tau(  21) = (   0.2187500   0.4510550   0.1497278  )
        22           B   tau(  22) = (   0.2187500   0.5593082   0.1497278  )
        23           B   tau(  23) = (   0.2187500   0.6675614   0.1497278  )
        24           B   tau(  24) = (   0.2187500   0.7758146   0.1497278  )
        25           B   tau(  25) = (   0.3437500   0.0180422   0.1497278  )
        26           B   tau(  26) = (   0.3437500   0.1262954   0.1497278  )
        27           B   tau(  27) = (   0.3437500   0.2345486   0.1497278  )
        28           B   tau(  28) = (   0.3437500   0.3428018   0.1497278  )
        29           B   tau(  29) = (   0.3437500   0.4510550   0.1497278  )
        30           B   tau(  30) = (   0.3437500   0.5593082   0.1497278  )
        31           B   tau(  31) = (   0.3437500   0.6675614   0.1497278  )
        32           B   tau(  32) = (   0.3437500   0.7758146   0.1497278  )
        33           B   tau(  33) = (   0.4687500   0.0180422   0.1497278  )
        34           B   tau(  34) = (   0.4687500   0.1262954   0.1497278  )
        35           B   tau(  35) = (   0.4687500   0.2345486   0.1497278  )
        36           B   tau(  36) = (   0.4687500   0.3428018   0.1497278  )
        37           B   tau(  37) = (   0.4687500   0.4510550   0.1497278  )
        38           B   tau(  38) = (   0.4687500   0.5593082   0.1497278  )
        39           B   tau(  39) = (   0.4687500   0.6675614   0.1497278  )
        40           B   tau(  40) = (   0.4687500   0.7758146   0.1497278  )
        41           B   tau(  41) = (   0.5937500   0.0180422   0.1497278  )
        42           B   tau(  42) = (   0.5937500   0.1262954   0.1497278  )
        43           B   tau(  43) = (   0.5937500   0.2345486   0.1497278  )
        44           B   tau(  44) = (   0.5937500   0.3428018   0.1497278  )
        45           B   tau(  45) = (   0.5937500   0.4510550   0.1497278  )
        46           B   tau(  46) = (   0.5937500   0.5593082   0.1497278  )
        47           B   tau(  47) = (   0.5937500   0.6675614   0.1497278  )
        48           B   tau(  48) = (   0.5937500   0.7758146   0.1497278  )
        49           B   tau(  49) = (   0.7187500   0.0180422   0.1497278  )
        50           B   tau(  50) = (   0.7187500   0.1262954   0.1497278  )
        51           B   tau(  51) = (   0.7187500   0.2345486   0.1497278  )
        52           B   tau(  52) = (   0.7187500   0.3428018   0.1497278  )
        53           B   tau(  53) = (   0.7187500   0.4510550   0.1497278  )
        54           B   tau(  54) = (   0.7187500   0.5593082   0.1497278  )
        55           B   tau(  55) = (   0.7187500   0.6675614   0.1497278  )
        56           B   tau(  56) = (   0.7187500   0.7758146   0.1497278  )
        57           B   tau(  57) = (   0.8437500   0.0180422   0.1497278  )
        58           B   tau(  58) = (   0.8437500   0.1262954   0.1497278  )
        59           B   tau(  59) = (   0.8437500   0.2345486   0.1497278  )
        60           B   tau(  60) = (   0.8437500   0.3428018   0.1497278  )
[...]
       498           N   tau( 498) = (   0.8125000   0.1443376   0.1497278  )
       499           N   tau( 499) = (   0.8125000   0.2525908   0.1497278  )
       500           N   tau( 500) = (   0.8125000   0.3608439   0.1497278  )
       501           N   tau( 501) = (   0.8125000   0.4690971   0.1497278  )
       502           N   tau( 502) = (   0.8125000   0.5773503   0.1497278  )
       503           N   tau( 503) = (   0.8125000   0.6856035   0.1497278  )
       504           N   tau( 504) = (   0.8125000   0.7938567   0.1497278  )
       505           N   tau( 505) = (   0.9375000   0.0360844   0.1497278  )
       506           N   tau( 506) = (   0.9375000   0.1443376   0.1497278  )
       507           N   tau( 507) = (   0.9375000   0.2525908   0.1497278  )
       508           N   tau( 508) = (   0.9375000   0.3608439   0.1497278  )
       509           N   tau( 509) = (   0.9375000   0.4690971   0.1497278  )
       510           N   tau( 510) = (   0.9375000   0.5773503   0.1497278  )
       511           N   tau( 511) = (   0.9375000   0.6856035   0.1497278  )
       512           N   tau( 512) = (   0.9375000   0.7938567   0.1497278  )

     number of k points=     4
                       cart. coord. in units 2pi/alat
        k(    1) = (   0.0000000   0.0000000   0.0000000), wk =   0.2222222
        k(    2) = (   0.0000000   0.3849001   0.0000000), wk =   0.4444444
        k(    3) = (   0.3333333   0.0000000   0.0000000), wk =   0.4444444
        k(    4) = (   0.3333333   0.3849001   0.0000000), wk =   0.8888889

     Check: negative core charge=   -0.000007

     Initial potential from superposition of free atoms

     starting charge    2047.9258, renormalised to    2048.0000

     negative rho (up, down):  2.251E-01 0.000E+00
     Starting wfcs are 2048 randomized atomic wfcs
     Checking if some PAW data can be deallocated...

     Self-consistent Calculation

     iteration #  1     ecut=    51.45 Ry     beta= 0.70
     Davidson diagonalization with overlap
     ethr =  1.00E-02,  avg # of iterations =  2.0

     negative rho (up, down):  5.918E-01 0.000E+00

     total energy              =  -10166.48009851 Ry
     estimated scf accuracy    <     108.62889007 Ry

[...]

     iteration #  8     ecut=    51.45 Ry     beta= 0.70
     Davidson diagonalization with overlap
     c_bands:  4 eigenvalues not converged
     ethr =  1.21E-06,  avg # of iterations = 17.2

[...]

     iteration # 11     ecut=    51.45 Ry     beta= 0.70
     Davidson diagonalization with overlap
     c_bands:  4 eigenvalues not converged
     ethr =  6.46E-09,  avg # of iterations = 10.8

[...]

     total energy              =  -10205.29221246 Ry
     estimated scf accuracy    <       0.00000157 Ry

     iteration # 14     ecut=    51.45 Ry     beta= 0.70
     Davidson diagonalization with overlap
     ethr =  7.68E-11,  avg # of iterations =  2.8

     negative rho (up, down):  8.105E-01 0.000E+00

     End of self-consistent calculation

          k = 0.0000 0.0000 0.0000 (****** PWs)   bands (ev):

   -22.3138 -22.2573 -22.2573 -22.2385 -22.2385 -22.1823 -22.1823 -22.1823
   -22.1823 -22.0891 -22.0891 -22.0152 -22.0150 -22.0150 -22.0150 -22.0150
   -22.0147 -21.9598 -21.9598 -21.9593 -21.9593 -21.8130 -21.8130 -21.7951
   -21.7951 -21.7946 -21.7946 -21.7406 -21.7406 -21.7406 -21.7406 -21.6505
   -21.6505 -21.5966 -21.5966 -21.5966 -21.5966 -21.5259 -21.5259 -21.5254
   -21.5254 -21.4369 -21.4367 -21.4367 -21.4367 -21.4367 -21.4365 -21.3672
   -21.3672 -21.3668 -21.3668 -21.1765 -21.1765 -21.1765 -21.1765 -21.1613
   -21.1610 -21.1609 -21.1609 -21.1609 -21.1605 -21.1093 -21.1093 -21.1092
   -21.1092 -20.9728 -20.9728 -20.9565 -20.9565 -20.9565 -20.9565 -20.9079
   -20.9079 -20.9079 -20.9079 -20.8279 -20.8279 -20.8275 -20.8275 -20.7171
   -20.7171 -20.7166 -20.7166 -20.7104 -20.7104 -20.7104 -20.7104 -20.5771
   -20.5771 -20.5286 -20.5286 -20.5286 -20.5286 -20.4428 -20.4428 -20.4108
   -20.4108 -20.4108 -20.4108 -20.3865 -20.3863 -20.3862 -20.3862 -20.3862
   -20.3862 -20.3862 -20.3862 -20.3862 -20.3862 -20.3861 -20.3859 -20.2212
   -20.2212 -20.2208 -20.2208 -20.1603 -20.1603 -20.1603 -20.1603 -20.0120
   -20.0120 -20.0120 -20.0120 -19.9626 -19.9621 -19.9621 -19.9621 -19.9621
   -19.9617 -19.9183 -19.9183 -19.9174 -19.9174 -19.8824 -19.8824 -19.8720
   -19.8720 -19.8716 -19.8716 -19.8403 -19.8403 -19.8403 -19.8403 -19.7896
   -19.7896 -19.7887 -19.7887 -19.7207 -19.7207 -19.7203 -19.7203 -19.6373
   -19.6373 -19.6373 -19.6373 -19.5905 -19.5905 -19.5897 -19.5897 -19.5596
   -19.5596 -19.5596 -19.5596 -19.5435 -19.5435 -19.5435 -19.5435 -19.4437
   -19.4437 -19.4040 -19.4040 -19.4040 -19.4040 -19.3499 -19.3494 -19.3493
   -19.3493 -19.3491 -19.3487 -19.3430 -19.3430 -19.3430 -19.3430 -19.3323
   -19.3323 -19.3323 -19.3323 -19.2906 -19.2904 -19.2903 -19.2903 -19.2903
   -19.2903 -19.2902 -19.2902 -19.2902 -19.2902 -19.2901 -19.2899 -19.2466
   -19.2466 -19.2466 -19.2466 -19.2280 -19.2280 -19.2279 -19.1906 -19.1906
   -19.1592 -19.1592 -19.1592 -19.1592 -19.1205 -19.1205 -19.1205 -19.1205
   -19.1187 -19.1187 -19.1181 -19.1181 -19.0844 -19.0844 -19.0245 -19.0245
   -19.0241 -19.0241 -18.9795 -18.9795 -18.9789 -18.9789 -18.9484 -18.9484
   -18.9484 -18.9484 -18.9309 -18.9309 -18.9305 -18.9305 -18.9293 -18.9293
   -18.9249 -18.9249 -18.7830 -18.7830 -18.7830 -18.7830 -18.7646 -18.7644
   -18.7644 -18.7644 -18.7644 -18.7641 -18.6881 -18.6881 -18.6553 -18.6553
   -13.5344 -13.5344 -13.5343 -13.4891 -13.4891 -13.4113 -13.4113 -13.4113
   -13.4113 -13.4021 -13.4021 -13.4020 -13.4020 -13.3543 -13.3543 -13.3276
   -13.3276 -13.3276 -13.3276 -13.2352 -13.2352 -13.2346 -13.2346 -13.1919
   -13.1919 -13.1519 -13.1519 -13.1519 -13.1519 -13.1347 -13.1347 -13.0631
   -13.0631 -13.0628 -13.0628 -13.0360 -13.0356 -13.0354 -13.0354 -13.0354
   -13.0354 -13.0353 -13.0353 -13.0353 -13.0353 -13.0352 -13.0347 -13.0017
   -13.0017 -13.0017 -13.0017 -12.8601 -12.8601 -12.8601 -12.8601 -12.8574
   -12.8574 -12.8574 -12.8574 -12.8472 -12.8469 -12.8469 -12.8469 -12.8469
   -12.8466 -12.7658 -12.7658 -12.7658 -12.7658 -12.6730 -12.6730 -12.6725
   -12.6725 -12.6590 -12.6590 -12.6590 -12.6590 -12.6351 -12.6351 -12.6348
   -12.6348 -12.6124 -12.6124 -12.5890 -12.5890 -12.5831 -12.5831 -12.5428
   -12.5428 -12.5427 -12.5427 -12.4961 -12.4961 -12.4954 -12.4954 -12.3990
   -12.3990 -12.3990 -12.3990 -12.3012 -12.3008 -12.3008 -12.3008 -12.3008
   -12.3004 -12.2753 -12.2753 -12.2745 -12.2745 -12.2479 -12.2476 -12.2475
   -12.2474 -12.2474 -12.2469 -12.2086 -12.2086 -12.2078 -12.2078 -12.1504
   -12.1504 -12.1497 -12.1497 -11.9759 -11.9759 -11.9759 -11.9759 -11.9303
   -11.9303 -11.9303 -11.9303 -11.7608 -11.7608 -11.7103 -11.7103 -11.7101
   -11.7101 -11.7080 -11.7080 -11.7074 -11.7074 -11.6577 -11.6577 -11.6216
   -11.6216 -11.4102 -11.4102 -11.4102 -11.4102 -11.3944 -11.3944 -11.3944
   -11.3944 -11.2500 -11.2500 -11.2500 -11.2500 -11.2060 -11.2057 -11.2057
   -11.2057 -11.2057 -11.2055 -11.1527 -11.1527 -11.1041 -11.1040 -11.1037
   -11.1037 -11.1037 -11.1037 -11.1037 -11.1037 -11.1037 -11.1037 -11.1033
   -11.1033 -11.0911 -11.0911 -11.0877 -11.0877 -11.0877 -11.0877 -11.0346
   -11.0346 -11.0342 -11.0342 -10.7905 -10.7905 -10.7611 -10.7611 -10.7606
   -10.7606 -10.7448 -10.7448 -10.7448 -10.7448 -10.6159 -10.6159 -10.6153
   -10.6153 -10.5210 -10.5209 -10.5207 -10.5207 -10.5205 -10.5202 -10.4348
   -10.4348 -10.4348 -10.4348 -10.4030 -10.4030 -10.3770 -10.3770 -10.3765
   -10.3765 -10.3436 -10.3436 -10.3436 -10.3436 -10.2976 -10.2976 -10.2976
[...]
    -6.0677  -6.0325  -6.0325  -6.0325  -6.0325  -5.9732  -5.9732  -5.8803
    -5.8803  -5.8226  -5.8226  -5.8226  -5.8226  -5.7587  -5.7585  -5.7585
    -5.7585  -5.7585  -5.7583  -5.7292  -5.7292  -5.7292  -5.7292  -5.7260
    -5.7260  -5.7260  -5.7260  -5.6560  -5.6558  -5.6558  -5.6558  -5.6558
    -5.6558  -5.6557  -5.6557  -5.6557  -5.6557  -5.6557  -5.6555  -5.5781
    -5.5781  -5.5781  -5.5781  -5.5445  -5.5445  -5.5445  -5.4893  -5.4893
    -5.4443  -5.4443  -5.4443  -5.4443  -5.4025  -5.4025  -5.4023  -5.4023
    -5.4013  -5.4013  -5.4013  -5.4013  -5.3309  -5.3309  -5.2412  -5.2412
    -5.2409  -5.2409  -5.1754  -5.1754  -5.1752  -5.1752  -5.1315  -5.1315
    -5.1315  -5.1315  -5.1070  -5.1070  -5.1068  -5.1068  -5.0990  -5.0990
    -5.0937  -5.0937  -4.8667  -4.8667  -4.8667  -4.8667  -4.8324  -4.8323
    -4.8323  -4.8323  -4.8323  -4.8322  -4.7079  -4.7079  -4.6521  -4.6521
    -0.1454  -0.0485  -0.0485  -0.0164  -0.0164   0.0694   0.0694   0.0794
     0.0794   0.0794   0.0795   0.1142   0.1142   0.1545   0.1545   0.1545
     0.1545   0.1545   0.1547   0.1768   0.1796

[...]

          k = 0.3333 0.3849 0.0000 (****** PWs)   bands (ev):

   -22.2992 -22.2803 -22.2740 -22.2552 -22.2052 -22.1803 -22.1740 -22.1553
   -22.1491 -22.1243 -22.0994 -22.0808 -22.0808 -22.0252 -22.0067 -22.0006
   -21.9760 -21.9514 -21.9085 -21.9025 -21.8841 -21.8841 -21.8780 -21.8110
   -21.8051 -21.7869 -21.7809 -21.7627 -21.7565 -21.7145 -21.6903 -21.6903
   -21.6663 -21.6363 -21.6125 -21.5711 -21.5647 -21.5411 -21.5234 -21.5001
   -21.4942 -21.4937 -21.4764 -21.4471 -21.4057 -21.4057 -21.3772 -21.3530
   -21.3307 -21.3132 -21.3132 -21.2833 -21.2605 -21.2434 -21.2141 -21.1981
   -21.1929 -21.1915 -21.1698 -21.1286 -21.1286 -21.1063 -21.1024 -21.0795
   -21.0550 -21.0178 -20.9710 -20.9689 -20.9520 -20.9520 -20.9277 -20.9251
   -20.8847 -20.8347 -20.8163 -20.8135 -20.7951 -20.7792 -20.7742 -20.7742
   -20.7737 -20.7571 -20.7036 -20.6912 -20.6912 -20.6734 -20.6627 -20.6424
   -20.6298 -20.6233 -20.6183 -20.5983 -20.5618 -20.5190 -20.5145 -20.4690
   -20.4604 -20.4365 -20.4365 -20.4265 -20.4181 -20.3710 -20.3657 -20.3500
   -20.3316 -20.3075 -20.2875 -20.2875 -20.2556 -20.2512 -20.2413 -20.2336
   -20.2146 -20.1640 -20.1594 -20.1546 -20.1441 -20.1441 -20.1210 -20.1129
   -20.1044 -20.0835 -20.0642 -20.0482 -20.0482 -20.0388 -20.0174 -20.0008
   -19.9851 -19.9851 -19.9809 -19.9389 -19.9378 -19.9229 -19.9018 -19.8823
   -19.8813 -19.8530 -19.8253 -19.8207 -19.7895 -19.7649 -19.7506 -19.7506
   -19.7451 -19.7227 -19.6942 -19.6941 -19.6941 -19.6823 -19.6528 -19.6363
   -19.6297 -19.6255 -19.6076 -19.6033 -19.6033 -19.5970 -19.5941 -19.5895
   -19.5757 -19.5464 -19.5215 -19.5215 -19.5163 -19.5107 -19.5072 -19.5005
   -19.4995 -19.4831 -19.4818 -19.4748 -19.4725 -19.4481 -19.4291 -19.4242
   -19.3896 -19.3803 -19.3763 -19.3577 -19.3417 -19.3416 -19.3415 -19.3273
   -19.3238 -19.3230 -19.3202 -19.3201 -19.3101 -19.2949 -19.2665 -19.2664
   -19.2596 -19.2595 -19.2491 -19.2430 -19.2365 -19.2365 -19.2228 -19.2201
   -19.2035 -19.1969 -19.1906 -19.1887 -19.1875 -19.1871 -19.1845 -19.1838
   -19.1829 -19.1804 -19.1798 -19.1512 -19.1335 -19.1328 -19.1295 -19.1219
   -19.1181 -19.1179 -19.1086 -19.1086 -19.0750 -19.0750 -19.0644 -19.0604
   -19.0522 -19.0496 -19.0496 -19.0475 -19.0427 -19.0076 -18.9844 -18.9572
   -18.9411 -18.9349 -18.9256 -18.9082 -18.9025 -18.8975 -18.8943 -18.8943
   -18.8460 -18.8403 -18.8403 -18.8375 -18.8269 -18.8211 -18.7884 -18.7692
   -18.7498 -18.7449 -18.7357 -18.6988 -18.6967 -18.6967 -18.6670 -18.6590
   -13.5206 -13.5005 -13.4899 -13.4793 -13.4750 -13.4749 -13.4715 -13.4156
   -13.4037 -13.3996 -13.3786 -13.3738 -13.3734 -13.3713 -13.3595 -13.3175
   -13.3175 -13.3026 -13.3025 -13.2889 -13.2812 -13.2698 -13.2603 -13.2545
   -13.2520 -13.2135 -13.2002 -13.1893 -13.1827 -13.1536 -13.1497 -13.1266
   -13.0887 -13.0824 -13.0824 -13.0822 -13.0707 -13.0481 -13.0368 -13.0153
   -13.0153 -12.9988 -12.9953 -12.9438 -12.9398 -12.9395 -12.9341 -12.9290
   -12.9277 -12.9223 -12.9133 -12.9023 -12.8801 -12.8801 -12.8645 -12.8615
   -12.8471 -12.8454 -12.8426 -12.7925 -12.7695 -12.7669 -12.7669 -12.7632
   -12.7592 -12.7583 -12.7329 -12.7222 -12.7174 -12.7086 -12.7085 -12.6967
   -12.6958 -12.6742 -12.6687 -12.6536 -12.6512 -12.6512 -12.6511 -12.6454
   -12.6402 -12.6296 -12.6296 -12.6138 -12.6102 -12.5991 -12.5887 -12.5869
   -12.5715 -12.5594 -12.5572 -12.5504 -12.5504 -12.5416 -12.5401 -12.5257
   -12.5257 -12.4892 -12.4608 -12.4523 -12.4483 -12.4362 -12.4008 -12.3947
   -12.3946 -12.3873 -12.3831 -12.3710 -12.3403 -12.2877 -12.2225 -12.2155
   -12.2031 -12.1923 -12.1068 -12.0931 -12.0823 -12.0576 -12.0195 -12.0072
   -11.9677 -11.9209 -11.9143 -11.9142 -11.8974 -11.8974 -11.8902 -11.8750
   -11.8604 -11.8604 -11.8496 -11.8472 -11.8236 -11.7879 -11.7625 -11.7487
   -11.7449 -11.7012 -11.6319 -11.6177 -11.5944 -11.5944 -11.5865 -11.5837
   -11.5367 -11.5179 -11.5164 -11.5155 -11.5154 -11.5122 -11.4987 -11.4986
   -11.4956 -11.4955 -11.4924 -11.4506 -11.4117 -11.4042 -11.3378 -11.3058
   -11.2990 -11.2913 -11.2896 -11.2829 -11.2378 -11.1927 -11.1921 -11.1388
   -11.1298 -11.1298 -11.1263 -11.0960 -11.0588 -11.0539 -11.0505 -10.9854
   -10.9813 -10.9349 -10.9003 -10.9003 -10.8887 -10.8728 -10.8714 -10.8538
   -10.8446 -10.8310 -10.8310 -10.8155 -10.7732 -10.7600 -10.7557 -10.7009
   -10.6916 -10.6797 -10.6669 -10.6668 -10.6636 -10.6636 -10.6507 -10.6489
   -10.6484 -10.6323 -10.6274 -10.5900 -10.5577 -10.5575 -10.5411 -10.5377
   -10.5209 -10.4908 -10.4677 -10.4001 -10.3830 -10.3516 -10.3459 -10.3458
   -10.3369 -10.3299 -10.3095 -10.3095 -10.3095 -10.2617 -10.2593 -10.2477
[...]
    -6.0373  -6.0077  -6.0032  -6.0031  -6.0031  -5.9932  -5.9825  -5.9825
    -5.9735  -5.9546  -5.9455  -5.9376  -5.9306  -5.8984  -5.8777  -5.8545
    -5.8040  -5.7970  -5.7772  -5.7525  -5.7452  -5.7452  -5.7266  -5.7081
    -5.7081  -5.7027  -5.7008  -5.6945  -5.6756  -5.6511  -5.6323  -5.6055
    -5.6013  -5.6013  -5.5876  -5.5786  -5.5600  -5.5600  -5.5469  -5.5331
    -5.5163  -5.5120  -5.5089  -5.5086  -5.5016  -5.4994  -5.4976  -5.4899
    -5.4869  -5.4834  -5.4810  -5.4334  -5.4117  -5.4075  -5.4042  -5.4040
    -5.4030  -5.4017  -5.3697  -5.3697  -5.3251  -5.3251  -5.3123  -5.2993
    -5.2970  -5.2968  -5.2968  -5.2786  -5.2683  -5.2165  -5.1942  -5.1439
    -5.1213  -5.1029  -5.0999  -5.0659  -5.0520  -5.0502  -5.0409  -5.0409
    -4.9631  -4.9592  -4.9592  -4.9511  -4.9390  -4.9258  -4.8752  -4.8419
    -4.8112  -4.8035  -4.7866  -4.7248  -4.7220  -4.7220  -4.6718  -4.6583
     0.0744   0.0815   0.1100   0.1183   0.1183   0.1533   0.1884   0.1904
     0.1911   0.1943   0.2107   0.2180   0.2233   0.2242   0.2388   0.2410
     0.2410   0.2850   0.2850   0.3005   0.3248

     highest occupied, lowest unoccupied level (ev):    -4.6367   -0.1454

!    total energy              =  -10205.29221241 Ry
     total all-electron energy =    -40807.057457 Ry
     estimated scf accuracy    <       0.00000022 Ry

     The total energy is the sum of the following terms:
     one-electron contribution =  -89744.35765059 Ry
     hartree contribution      =   45282.87582550 Ry
     xc contribution           =   -2258.29499248 Ry
     ewald contribution        =   39888.61042068 Ry
     one-center paw contrib.   =   -3374.12581551 Ry

     convergence has been achieved in  14 iterations

     Writing all to output data dir ./hBN.save/

     General routines

     Parallel routines

   This run was terminated on:   3:51:55  26Oct2022

   JOB DONE.