     Program PWSCF v.7.1 starts on 20Oct2022 at 23: 9:11
        Git branch: HEAD
        Last git commit: 564a7b486665e8dd0223d6e514b84195d1a96c10
        Last git commit date: Tue Jun 14 16:16:48 2022 +0000
        Last git commit subject: Merge branch 'update_version_number' into 'develop

     Waiting for input...
     Reading input from standard input

     Current dimensions of program PWSCF are:
     Max number of different atomic species (ntypx) = 10
     Max number of k-points (npk) =  40000
     Max angular momentum in pseudopotentials (lmaxx) =  4
     file N.pbe-n-kjpaw_psl.1.0.0.UPF: wavefunction(s)  2S renormalized
     file O.pbe-n-kjpaw_psl.1.0.0.UPF: wavefunction(s)  2S 2P renormalized
     file H.pbe-kjpaw_psl.1.0.0.UPF: wavefunction(s)  1S renormalized
     Found identity + (  0.0000  0.2500  0.0000) symmetry
     This is a supercell, fractional translations are disabled
     Message from routine setup:
     using ibrav=0 with symmetry is DISCOURAGED, use correct ibrav instead

     R & G space division:  proc/nbgrp/npool/nimage =     128
     Subspace diagonalization in iterative solution of the eigenvalue problem:
     one sub-group per band group will be used

     Using Slab Decomposition

     bravais-lattice index     =            0
     lattice parameter (alat)  =      37.8632  a.u.
     unit-cell volume          =   70385.9896 (a.u.)^3
     number of atoms/cell      =          176
     number of atomic types    =            4
     number of electrons       =       640.00
     number of Kohn-Sham states=          528
     kinetic-energy cutoff     =      51.4490  Ry
     charge density cutoff     =     205.7961  Ry
     scf convergence threshold =      1.0E-06
     mixing beta               =       0.7000
     number of iterations used =            8  plain     mixing
     Exchange-correlation= SLA  PW   PBX  PBC
                           (   1   4   3   4   0   0   0)

     celldm(1)=  37.863233  celldm(2)=   0.000000  celldm(3)=   0.000000
     celldm(4)=   0.000000  celldm(5)=   0.000000  celldm(6)=   0.000000

     crystal axes: (cart. coord. in units of alat)
               a(1) = (   1.000000   0.000000   0.000000 )
               a(2) = (   0.000000   0.866026   0.000000 )
               a(3) = (   0.000000   0.000000   1.497278 )

     reciprocal axes: (cart. coord. in units 2 pi/alat)
               b(1) = (  1.000000  0.000000  0.000000 )
               b(2) = (  0.000000  1.154700  0.000000 )
               b(3) = (  0.000000  0.000000  0.667879 )

     PseudoPot. # 1 for B  read from file:
     ./B.pbe-n-kjpaw_psl.1.0.0.UPF
     MD5 check sum: 8c825a5969375aca5c2c6ad5945b3059
     Pseudo is Projector augmented-wave + core cor, Zval =  3.0
     Generated using &quot;atomic&quot; code by A. Dal Corso  v.6.3
     Shape of augmentation charge: PSQ
     Using radial grid of 1059 points,  4 beta functions with:
                l(1) =   0
                l(2) =   0
                l(3) =   1
                l(4) =   1
     Q(r) pseudized with 0 coefficients

     PseudoPot. # 2 for N  read from file:
     ./N.pbe-n-kjpaw_psl.1.0.0.UPF
     MD5 check sum: 14c48229446f9f2d411169a3abcbc3fa
     Pseudo is Projector augmented-wave + core cor, Zval =  5.0
     Generated using &quot;atomic&quot; code by A. Dal Corso  v.6.3
     Shape of augmentation charge: PSQ
     Using radial grid of 1085 points,  4 beta functions with:
                l(1) =   0
                l(2) =   0
                l(3) =   1
                l(4) =   1
     Q(r) pseudized with 0 coefficients

     PseudoPot. # 3 for O  read from file:
     ./O.pbe-n-kjpaw_psl.1.0.0.UPF
     MD5 check sum: e99d9cef9b487d1ca56f5b95ecd0fd7a
     Pseudo is Projector augmented-wave + core cor, Zval =  6.0
     Generated using &quot;atomic&quot; code by A. Dal Corso  v.6.3
     Shape of augmentation charge: PSQ
     Using radial grid of 1095 points,  4 beta functions with:
                l(1) =   0
                l(2) =   0
                l(3) =   1
                l(4) =   1
     Q(r) pseudized with 0 coefficients

     PseudoPot. # 4 for H  read from file:
     ./H.pbe-kjpaw_psl.1.0.0.UPF
     MD5 check sum: d81a744832360e4a8af0b0b5b123bc2a
     Pseudo is Projector augmented-wave, Zval =  1.0
     Generated using &quot;atomic&quot; code by A. Dal Corso  v.6.3MaX
     Shape of augmentation charge: PSQ
     Using radial grid of  929 points,  2 beta functions with:
                l(1) =   0
                l(2) =   0
     Q(r) pseudized with 0 coefficients

     atomic species   valence    mass     pseudopotential
        B              3.00    10.81100     B ( 1.00)
        N              5.00    14.00670     N ( 1.00)
        O              6.00    15.99900     O ( 1.00)
        H              1.00     1.00784     H ( 1.00)

      2 Sym. Ops. (no inversion) found

   Cartesian axes

     site n.     atom                  positions (alat units)
         1           B   tau(   1) = (   0.9375000   0.0360847   0.2994556  )
         2           B   tau(   2) = (   0.9375000   0.2525911   0.2994556  )
         3           B   tau(   3) = (   0.9375000   0.4690975   0.2994556  )
         4           B   tau(   4) = (   0.9375000   0.6856039   0.2994556  )
         5           B   tau(   5) = (   0.1875000   0.0360847   0.2994556  )
         6           B   tau(   6) = (   0.1875000   0.2525911   0.2994556  )
         7           B   tau(   7) = (   0.1875000   0.4690975   0.2994556  )
         8           B   tau(   8) = (   0.1875000   0.6856039   0.2994556  )
         9           B   tau(   9) = (   0.4375000   0.0360847   0.2994556  )
        10           B   tau(  10) = (   0.4375000   0.2525911   0.2994556  )
        11           B   tau(  11) = (   0.4375000   0.4690975   0.2994556  )
        12           B   tau(  12) = (   0.4375000   0.6856039   0.2994556  )
        13           B   tau(  13) = (   0.6875000   0.0360847   0.2994556  )
        14           B   tau(  14) = (   0.6875000   0.2525911   0.2994556  )
        15           B   tau(  15) = (   0.6875000   0.4690975   0.2994556  )
        16           B   tau(  16) = (   0.6875000   0.6856039   0.2994556  )
        17           B   tau(  17) = (   0.0625000   0.0360847   0.2994556  )
        18           B   tau(  18) = (   0.0625000   0.2525911   0.2994556  )
        19           B   tau(  19) = (   0.0625000   0.4690975   0.2994556  )
        20           B   tau(  20) = (   0.0625000   0.6856039   0.2994556  )
        21           B   tau(  21) = (   0.3125000   0.0360847   0.2994556  )
        22           B   tau(  22) = (   0.3125000   0.2525911   0.2994556  )
        23           B   tau(  23) = (   0.3125000   0.4690975   0.2994556  )
        24           B   tau(  24) = (   0.3125000   0.6856039   0.2994556  )
        25           B   tau(  25) = (   0.5625000   0.0360847   0.2994556  )
        26           B   tau(  26) = (   0.5625000   0.2525911   0.2994556  )
        27           B   tau(  27) = (   0.5625000   0.4690975   0.2994556  )
        28           B   tau(  28) = (   0.5625000   0.6856039   0.2994556  )
        29           B   tau(  29) = (   0.8125000   0.0360847   0.2994556  )
        30           B   tau(  30) = (   0.8125000   0.2525911   0.2994556  )
        31           B   tau(  31) = (   0.8125000   0.4690975   0.2994556  )
        32           B   tau(  32) = (   0.8125000   0.6856039   0.2994556  )
        33           B   tau(  33) = (   0.0000000   0.7938571   0.2994556  )
        34           B   tau(  34) = (   0.0000000   0.1443379   0.2994556  )
        35           B   tau(  35) = (   0.0000000   0.3608443   0.2994556  )
        36           B   tau(  36) = (   0.0000000   0.5773507   0.2994556  )
        37           B   tau(  37) = (   0.2500000   0.7938571   0.2994556  )
        38           B   tau(  38) = (   0.2500000   0.1443379   0.2994556  )
        39           B   tau(  39) = (   0.2500000   0.3608443   0.2994556  )
        40           B   tau(  40) = (   0.2500000   0.5773507   0.2994556  )
        41           B   tau(  41) = (   0.5000000   0.7938571   0.2994556  )
        42           B   tau(  42) = (   0.5000000   0.1443379   0.2994556  )
        43           B   tau(  43) = (   0.5000000   0.3608443   0.2994556  )
        44           B   tau(  44) = (   0.5000000   0.5773507   0.2994556  )
        45           B   tau(  45) = (   0.7500000   0.7938571   0.2994556  )
        46           B   tau(  46) = (   0.7500000   0.1443379   0.2994556  )
        47           B   tau(  47) = (   0.7500000   0.3608443   0.2994556  )
        48           B   tau(  48) = (   0.7500000   0.5773507   0.2994556  )
        49           B   tau(  49) = (   0.1250000   0.7938571   0.2994556  )
        50           B   tau(  50) = (   0.1250000   0.1443379   0.2994556  )
        51           B   tau(  51) = (   0.1250000   0.3608443   0.2994556  )
        52           B   tau(  52) = (   0.1250000   0.5773507   0.2994556  )
        53           B   tau(  53) = (   0.3750000   0.7938571   0.2994556  )
        54           B   tau(  54) = (   0.3750000   0.1443379   0.2994556  )
        55           B   tau(  55) = (   0.3750000   0.3608443   0.2994556  )
        56           B   tau(  56) = (   0.3750000   0.5773507   0.2994556  )
        57           B   tau(  57) = (   0.6250000   0.7938571   0.2994556  )
        58           B   tau(  58) = (   0.6250000   0.1443379   0.2994556  )
        59           B   tau(  59) = (   0.6250000   0.3608443   0.2994556  )
        60           B   tau(  60) = (   0.6250000   0.5773507   0.2994556  )
[...]
       162           H   tau( 162) = (   0.0000000   0.1787278   0.4399063  )
       163           H   tau( 163) = (   0.0000000   0.3952341   0.4399063  )
       164           H   tau( 164) = (   0.0000000   0.6117405   0.4399063  )
       165           H   tau( 165) = (   0.2500000   0.8282469   0.4399063  )
       166           H   tau( 166) = (   0.2500000   0.1787278   0.4399063  )
       167           H   tau( 167) = (   0.2500000   0.3952341   0.4399063  )
       168           H   tau( 168) = (   0.2500000   0.6117405   0.4399063  )
       169           H   tau( 169) = (   0.5000000   0.8282469   0.4399063  )
       170           H   tau( 170) = (   0.5000000   0.1787278   0.4399063  )
       171           H   tau( 171) = (   0.5000000   0.3952341   0.4399063  )
       172           H   tau( 172) = (   0.5000000   0.6117405   0.4399063  )
       173           H   tau( 173) = (   0.7500000   0.8282469   0.4399063  )
       174           H   tau( 174) = (   0.7500000   0.1787278   0.4399063  )
       175           H   tau( 175) = (   0.7500000   0.3952341   0.4399063  )
       176           H   tau( 176) = (   0.7500000   0.6117405   0.4399063  )

     number of k points=     4
                       cart. coord. in units 2pi/alat
        k(    1) = (   0.0000000   0.0000000   0.0000000), wk =   0.2222222
        k(    2) = (   0.0000000   0.3849001   0.0000000), wk =   0.4444444
        k(    3) = (   0.3333333   0.0000000   0.0000000), wk =   0.4444444
        k(    4) = (   0.3333333   0.3849001   0.0000000), wk =   0.8888889

     Check: negative core charge=   -0.000008

     Initial potential from superposition of free atoms

     starting charge     639.9811, renormalised to     640.0000

     negative rho (up, down):  7.493E-02 0.000E+00
     Starting wfcs are  608 randomized atomic wfcs
     Checking if some PAW data can be deallocated...

     Self-consistent Calculation

     iteration #  1     ecut=    51.45 Ry     beta= 0.70
     Davidson diagonalization with overlap
     ethr =  1.00E-02,  avg # of iterations = 10.2

     negative rho (up, down):  1.417E-01 0.000E+00

     total energy              =   -3243.97538054 Ry
     estimated scf accuracy    <      33.02490008 Ry

[...]

     iteration #  4     ecut=    51.45 Ry     beta= 0.70
     Davidson diagonalization with overlap
     c_bands:  2 eigenvalues not converged
     ethr =  5.95E-05,  avg # of iterations = 18.8

[...]

     total energy              =   -3255.82715399 Ry
     estimated scf accuracy    <       0.00001288 Ry

     iteration # 11     ecut=    51.45 Ry     beta= 0.70
     Davidson diagonalization with overlap
     ethr =  2.01E-09,  avg # of iterations =  4.8

     negative rho (up, down):  1.815E-01 0.000E+00

     End of self-consistent calculation

          k = 0.0000 0.0000 0.0000 (438713 PWs)   bands (ev):

   -24.1763 -24.1755 -24.1754 -24.1747 -24.1690 -24.1688 -24.1684 -24.1683
   -24.1682 -24.1680 -24.1676 -24.1676 -24.1615 -24.1611 -24.1609 -24.1605
   -23.2430 -23.0189 -23.0188 -22.9451 -22.9446 -22.7254 -22.7254 -22.7249
   -22.7249 -22.3880 -22.3457 -22.1128 -22.1124 -22.0980 -22.0854 -22.0704
   -22.0698 -21.8939 -21.8939 -21.8811 -21.8811 -21.3732 -21.3732 -21.3583
   -21.3174 -21.3048 -21.2868 -21.1521 -21.1521 -21.1517 -21.1517 -20.8943
   -20.8933 -20.7203 -20.7203 -20.7194 -20.7194 -20.5731 -20.5731 -20.5620
   -20.5620 -20.3007 -20.2998 -20.2897 -20.2741 -20.2600 -20.2593 -20.2260
   -20.2257 -20.2154 -20.2146 -20.1642 -20.1548 -20.1525 -20.0161 -20.0161
   -19.9097 -19.9097 -19.9091 -19.9091 -19.7148 -19.6755 -19.6179 -19.6179
   -14.4671 -14.4654 -14.4638 -14.2855 -14.2854 -13.9943 -13.9943 -13.9939
   -13.9939 -13.9687 -13.9683 -13.9654 -13.9641 -13.7970 -13.7582 -13.6986
   -13.6986 -13.6953 -13.6953 -13.5435 -13.5435 -13.2324 -13.2316 -13.1898
   -13.1893 -13.1827 -13.1752 -13.1675 -13.1669 -13.1399 -13.1399 -13.1391
   -13.1391 -12.6394 -12.6394 -12.6388 -12.6388 -12.5890 -12.5890 -12.1459
   -12.1327 -12.0744 -12.0521 -12.0497 -12.0493 -12.0491 -12.0335 -12.0186
   -12.0085 -11.9638 -11.9638 -11.9625 -11.9625 -11.9621 -11.9621 -11.9620
   -11.9619 -11.8731 -11.8722 -11.8721 -11.8654 -11.7203 -11.7203 -11.4540
   -11.4537 -11.4532 -11.4474 -11.4467 -11.4464 -11.3068 -11.3068 -11.3063
   -11.3063 -10.8481 -10.8481 -10.8453 -10.8405 -10.8405 -10.6716 -10.6714
   -10.6711 -10.6626 -10.6623 -10.6620 -10.5452 -10.5452 -10.5349 -10.5349
   -10.4519 -10.4510 -10.4466 -10.4452 -10.4374 -10.4373 -10.1899 -10.1899
   -10.1896 -10.1896 -10.1441 -10.1441 -10.1440 -10.1440  -9.9990  -9.9990
    -9.7868  -9.7732  -9.7575  -9.7551  -9.7551  -9.7523  -9.7523  -9.7439
    -9.7421  -9.7365  -9.7126  -9.7117  -9.7096  -9.7047  -9.6010  -9.4383
    -9.4383  -9.4379  -9.4379  -9.3941  -9.3939  -9.3521  -9.3520  -9.3024
    -9.2566  -9.2248  -9.2246  -9.1959  -9.1959  -9.1876  -9.1876  -9.0310
    -9.0310  -8.9793  -8.9793  -8.7894  -8.7894  -8.7888  -8.7888  -8.5362
    -8.5357  -8.5319  -8.5267  -8.5222  -8.5177  -8.5173  -8.4999  -8.3980
    -8.3457  -8.3457  -8.2362  -8.1673  -8.1418  -8.1030  -8.1029  -8.1029
    -8.1029  -8.1027  -8.1020  -7.9949  -7.9832  -7.9831  -7.9381  -7.9238
    -7.9238  -7.9168  -7.9167  -7.9088  -7.9080  -7.9079  -7.8626  -7.8626
    -7.8623  -7.8623  -7.8220  -7.8220  -7.8220  -7.8218  -7.7904  -7.7904
    -7.7579  -7.5549  -7.5547  -7.4499  -7.4497  -7.3502  -7.3502  -7.3180
    -7.3180  -7.3178  -7.3178  -7.1131  -7.1131  -7.0895  -7.0895  -6.9039
    -6.9032  -6.7159  -6.7158  -6.7034  -6.6912  -6.6629  -6.6627  -6.6008
    -6.6003  -6.5890  -6.5889  -6.4893  -6.4851  -6.4733  -6.2657  -6.2657
    -6.1278  -6.1278  -6.1276  -6.1276  -5.9942  -5.9587  -5.9587  -5.9580
    -5.9578  -5.9352  -5.9055  -5.9054  -5.9052  -5.9051  -5.8988  -5.8987
    -5.8881  -5.8717  -5.8717  -5.8551  -5.7983  -5.7289  -5.6287  -5.6287
    -1.0729  -0.8792  -0.8792  -0.8474  -0.7842  -0.7613  -0.7545  -0.7467
    -0.7437  -0.7437  -0.6450  -0.6450  -0.6449  -0.6449  -0.6269  -0.6269
    -0.5297  -0.5294  -0.3148  -0.3144  -0.3116  -0.3114  -0.1764  -0.1450
    -0.1450  -0.1447  -0.1447   0.0133   0.1000   0.1000   0.1152   0.1152
     0.1494   0.1494   0.1661   0.1692   0.1692   0.1800   0.2058   0.2059
     0.3447   0.3451   0.5294   0.5742   0.5744   0.5986   0.5986   0.5989
     0.5989   0.7148   0.7148   0.7150   0.7151   0.7178   0.7179   0.7607
     0.8153   0.8906   0.8906   1.0297   1.0303   1.0790   1.1052   1.1207
     1.1309   1.1309   1.2008   1.2014   1.2745   1.2745   1.2746   1.2746
     1.3628   1.3974   1.3974   1.3980   1.3980   1.4439   1.4439   1.4754
     1.5071   1.5071   1.5444   1.5450   1.5784   1.5786   1.6231   1.6346
     1.6595   1.6960   1.7682   1.8234   1.8234   1.8583   1.8583   1.8594
     1.8594   1.8636   1.9441   1.9441   1.9443   1.9443   1.9722   1.9727
     1.9746   1.9749   1.9758   2.0097   2.0276   2.0585   2.0880   2.0880
     2.2535   2.2826   2.2826   2.3436   2.3436   2.3441   2.3441   2.4130
     2.4283   2.4283   2.4396   2.4409   2.4460   2.4614   2.4657   2.4663
     2.4719   2.4805   2.4810   2.5455   2.5714   2.6209   2.6209   2.6462
     2.6462   2.6465   2.6465   2.7150   2.7220   2.7224   2.7679   2.7679
     2.7681   2.7681   2.8704   2.8704   2.8708   2.8708   2.9598   2.9658
     3.0073   3.0080   3.0093   3.0120   3.0122   3.0126   3.0500   3.0506
     3.0895   3.0895   3.0899   3.0899   3.1660   3.3083   3.3083   3.3202
     3.3202   3.3939   3.4017   3.4092   3.4092   3.4214   3.4214   3.4265
     3.4358   3.4360   3.4369   3.4378   3.4446   3.4883   3.4883   3.4888
     3.4889   3.5150   3.5150   3.5449   3.5449   3.5464   3.5538   3.6083
     3.6086   3.6199   3.6449   3.6453   3.6632   3.6636   3.6848   3.6867
     3.6867   3.7237   3.7441   3.7484   3.7526   3.7526   3.7965   3.7966

[...]

          k = 0.3333 0.3849 0.0000 (438654 PWs)   bands (ev):

   -24.1752 -24.1749 -24.1741 -24.1739 -24.1724 -24.1722 -24.1715 -24.1713
   -24.1651 -24.1649 -24.1644 -24.1642 -24.1624 -24.1622 -24.1617 -24.1615
   -23.1846 -23.1098 -23.0849 -23.0106 -22.8143 -22.7172 -22.6929 -22.6206
   -22.5971 -22.5020 -22.4070 -22.3364 -22.3363 -22.1294 -22.0596 -22.0359
   -21.9474 -21.8593 -21.7043 -21.6881 -21.6223 -21.6215 -21.6033 -21.3683
   -21.3575 -21.3019 -21.2812 -21.2189 -21.1859 -21.0735 -20.9789 -20.9788
   -20.9160 -20.8128 -20.7548 -20.6806 -20.6135 -20.5709 -20.5334 -20.5244
   -20.5031 -20.4524 -20.4300 -20.4051 -20.3069 -20.2517 -20.2502 -20.2415
   -20.1910 -20.1898 -20.1271 -20.1197 -20.0630 -20.0389 -20.0067 -19.9943
   -19.9817 -19.8898 -19.8548 -19.8244 -19.7702 -19.7702 -19.6739 -19.6264
   -14.4104 -14.3307 -14.2905 -14.2486 -14.2337 -14.2336 -14.2200 -14.0137
   -13.9679 -13.9469 -13.8750 -13.8738 -13.8609 -13.8556 -13.8108 -13.6999
   -13.6980 -13.6396 -13.6376 -13.5849 -13.5817 -13.5751 -13.5609 -13.5505
   -13.5205 -13.4568 -13.2716 -13.2188 -12.9507 -12.9387 -12.8457 -12.7919
   -12.5633 -12.5262 -12.4588 -12.4473 -12.4444 -12.4378 -12.4308 -12.4278
   -12.2321 -12.0741 -12.0648 -12.0629 -12.0456 -12.0410 -12.0399 -12.0372
   -12.0145 -12.0066 -12.0057 -12.0052 -12.0037 -11.9189 -11.9188 -11.9129
   -11.9124 -11.8864 -11.8830 -11.8827 -11.8810 -11.8011 -11.7605 -11.6884
   -11.5959 -11.5942 -11.5932 -11.5803 -11.5568 -11.3977 -11.2598 -11.2414
   -11.0134 -10.9830 -10.9750 -10.9211 -10.8850 -10.8848 -10.8302 -10.7658
   -10.7365 -10.6657 -10.6296 -10.5674 -10.5301 -10.5256 -10.4835 -10.4752
   -10.4572 -10.3629 -10.3627 -10.3623 -10.3018 -10.2942 -10.2697 -10.2425
   -10.1372 -10.0967 -10.0661 -10.0661 -10.0655  -9.9999  -9.9796  -9.9675
    -9.9554  -9.9355  -9.8741  -9.8736  -9.8497  -9.8258  -9.7799  -9.7774
    -9.7086  -9.6787  -9.6699  -9.6185  -9.6140  -9.5913  -9.5680  -9.5356
    -9.5273  -9.3977  -9.3810  -9.3416  -9.3017  -9.2541  -9.2425  -9.2212
    -9.2211  -9.2168  -9.1817  -9.1557  -9.1214  -9.0923  -9.0766  -8.9749
    -8.9731  -8.9653  -8.9583  -8.9229  -8.9223  -8.8788  -8.8149  -8.7711
    -8.7308  -8.6568  -8.6434  -8.6323  -8.6226  -8.5274  -8.4707  -8.4705
    -8.3162  -8.3021  -8.2480  -8.2418  -8.2011  -8.1371  -8.0915  -8.0863
    -8.0636  -8.0539  -8.0398  -8.0219  -7.9981  -7.9913  -7.9869  -7.9341
    -7.9296  -7.9281  -7.9268  -7.9259  -7.9195  -7.9106  -7.9088  -7.8837
    -7.8705  -7.8703  -7.8294  -7.7999  -7.7943  -7.7350  -7.6884  -7.6548
    -7.6484  -7.5795  -7.5507  -7.4628  -7.4459  -7.3683  -7.3583  -7.2603
    -7.2202  -7.1746  -7.1627  -7.1540  -7.1132  -7.0557  -7.0370  -7.0221
    -7.0024  -6.9305  -6.9099  -6.8642  -6.7147  -6.6420  -6.6396  -6.6084
    -6.5411  -6.5343  -6.4437  -6.4425  -6.3493  -6.3147  -6.2609  -6.2602
    -6.2482  -6.0836  -6.0542  -6.0214  -5.9850  -5.9828  -5.9801  -5.9718
    -5.9458  -5.9421  -5.9337  -5.9274  -5.9202  -5.8855  -5.8835  -5.8807
    -5.8802  -5.8682  -5.8668  -5.8636  -5.8621  -5.8328  -5.7281  -5.6466
    -0.9629  -0.8573  -0.8436  -0.7745  -0.7735  -0.7483  -0.7390  -0.7334
    -0.6894  -0.6716  -0.6480  -0.6105  -0.5845  -0.5663  -0.5567  -0.5566
    -0.5315  -0.5039  -0.4712  -0.4623  -0.3451  -0.3364  -0.2132  -0.2070
    -0.1837  -0.0958  -0.0736  -0.0675  -0.0511  -0.0394  -0.0368  -0.0320
    -0.0309   0.0442   0.0495   0.1162   0.1176   0.2237   0.2707   0.3023
     0.3313   0.4305   0.4324   0.4676   0.4943   0.5508   0.6128   0.6392
     0.6556   0.7144   0.7454   0.7506   0.7596   0.7669   0.7935   0.8783
     0.8793   0.9078   0.9142   1.0130   1.0216   1.1371   1.1742   1.1761
     1.1902   1.2036   1.2180   1.2242   1.2995   1.3016   1.3034   1.3038
     1.3429   1.3826   1.4314   1.4320   1.4394   1.4661   1.4855   1.4857
     1.5194   1.5724   1.5730   1.5753   1.5895   1.6464   1.6576   1.6968
     1.7225   1.7256   1.7384   1.7448   1.8463   1.8469   1.8557   1.8626
     1.8674   1.8999   1.9014   1.9293   1.9303   1.9699   1.9839   1.9890
     1.9942   2.0021   2.0099   2.0194   2.0382   2.0563   2.0692   2.1034
     2.1235   2.1807   2.1987   2.2210   2.2633   2.3354   2.3443   2.3477
     2.3591   2.3766   2.3795   2.3839   2.3955   2.4130   2.4149   2.4699
     2.4910   2.5059   2.5089   2.5131   2.5398   2.5426   2.5674   2.6103
     2.6122   2.6277   2.6425   2.6715   2.7152   2.7279   2.8055   2.8069
     2.8638   2.8865   2.9057   2.9515   2.9533   2.9976   3.0053   3.0100
     3.0124   3.0160   3.0213   3.0275   3.0637   3.0672   3.1005   3.1022
     3.1043   3.1088   3.1141   3.1165   3.1314   3.2055   3.2257   3.2384
     3.2497   3.3086   3.3128   3.3154   3.3361   3.3536   3.3755   3.3785
     3.3964   3.3989   3.4389   3.4615   3.4680   3.4968   3.5005   3.5073
     3.5085   3.5313   3.5357   3.5387   3.5809   3.5895   3.5915   3.6153
     3.6253   3.6326   3.6336   3.6378   3.6426   3.6455   3.6468   3.6606
     3.6706   3.6924   3.7018   3.7167   3.7318   3.7333   3.7475   3.7677

     highest occupied, lowest unoccupied level (ev):    -5.5632   -1.0729

!    total energy              =   -3255.82715617 Ry
     total all-electron energy =    -12647.818572 Ry
     estimated scf accuracy    <       0.00000087 Ry

     The total energy is the sum of the following terms:
     one-electron contribution =  -29666.39959746 Ry
     hartree contribution      =   14950.78768300 Ry
     xc contribution           =    -706.71388183 Ry
     ewald contribution        =   13163.43307205 Ry
     one-center paw contrib.   =    -996.93443193 Ry

     convergence has been achieved in  11 iterations

     Writing all to output data dir ./hBN_water_Oup_Hdown.save/

     General routines

     Parallel routines

   This run was terminated on:  23:30:32  20Oct2022

   JOB DONE.