     Program PWSCF v.7.1 starts on 25Oct2022 at 20: 0:45
        Git branch: HEAD
        Last git commit: 564a7b486665e8dd0223d6e514b84195d1a96c10
        Last git commit date: Tue Jun 14 16:16:48 2022 +0000
        Last git commit subject: Merge branch 'update_version_number' into 'develop

     Reading input from scf.in

     Current dimensions of program PWSCF are:
     Max number of different atomic species (ntypx) = 10
     Max number of k-points (npk) =  40000
     Max angular momentum in pseudopotentials (lmaxx) =  4
     file N.pbe-n-kjpaw_psl.1.0.0.UPF: wavefunction(s)  2S renormalized
     file O.pbe-n-kjpaw_psl.1.0.0.UPF: wavefunction(s)  2S 2P renormalized
     file H.pbe-kjpaw_psl.1.0.0.UPF: wavefunction(s)  1S renormalized
     Message from routine setup:
     using ibrav=0 with symmetry is DISCOURAGED, use correct ibrav instead

     R & G space division:  proc/nbgrp/npool/nimage =     128
     Subspace diagonalization in iterative solution of the eigenvalue problem:
     one sub-group per band group will be used

     Using Slab Decomposition

     bravais-lattice index     =            0
     lattice parameter (alat)  =      75.7265  a.u.
     unit-cell volume          =  281543.9584 (a.u.)^3
     number of atoms/cell      =          515
     number of atomic types    =            4
     number of electrons       =      2056.00
     number of Kohn-Sham states=         1049
     kinetic-energy cutoff     =      51.4490  Ry
     charge density cutoff     =     205.7961  Ry
     scf convergence threshold =      1.0E-06
     mixing beta               =       0.7000
     number of iterations used =            8  plain     mixing
     Exchange-correlation= SLA  PW   PBX  PBC
                           (   1   4   3   4   0   0   0)

     celldm(1)=  75.726466  celldm(2)=   0.000000  celldm(3)=   0.000000
     celldm(4)=   0.000000  celldm(5)=   0.000000  celldm(6)=   0.000000

     crystal axes: (cart. coord. in units of alat)
               a(1) = (   1.000000   0.000000   0.000000 )
               a(2) = (   0.000000   0.866026   0.000000 )
               a(3) = (   0.000000   0.000000   0.748639 )

     reciprocal axes: (cart. coord. in units 2 pi/alat)
               b(1) = (  1.000000  0.000000  0.000000 )
               b(2) = (  0.000000  1.154700  0.000000 )
               b(3) = (  0.000000  0.000000  1.335757 )

     PseudoPot. # 1 for B  read from file:
     ./B.pbe-n-kjpaw_psl.1.0.0.UPF
     MD5 check sum: 8c825a5969375aca5c2c6ad5945b3059
     Pseudo is Projector augmented-wave + core cor, Zval =  3.0
     Generated using &quot;atomic&quot; code by A. Dal Corso  v.6.3
     Shape of augmentation charge: PSQ
     Using radial grid of 1059 points,  4 beta functions with:
                l(1) =   0
                l(2) =   0
                l(3) =   1
                l(4) =   1
     Q(r) pseudized with 0 coefficients

     PseudoPot. # 2 for N  read from file:
     ./N.pbe-n-kjpaw_psl.1.0.0.UPF
     MD5 check sum: 14c48229446f9f2d411169a3abcbc3fa
     Pseudo is Projector augmented-wave + core cor, Zval =  5.0
     Generated using &quot;atomic&quot; code by A. Dal Corso  v.6.3
     Shape of augmentation charge: PSQ
     Using radial grid of 1085 points,  4 beta functions with:
                l(1) =   0
                l(2) =   0
                l(3) =   1
                l(4) =   1
     Q(r) pseudized with 0 coefficients

     PseudoPot. # 3 for O  read from file:
     ./O.pbe-n-kjpaw_psl.1.0.0.UPF
     MD5 check sum: e99d9cef9b487d1ca56f5b95ecd0fd7a
     Pseudo is Projector augmented-wave + core cor, Zval =  6.0
     Generated using &quot;atomic&quot; code by A. Dal Corso  v.6.3
     Shape of augmentation charge: PSQ
     Using radial grid of 1095 points,  4 beta functions with:
                l(1) =   0
                l(2) =   0
                l(3) =   1
                l(4) =   1
     Q(r) pseudized with 0 coefficients

     PseudoPot. # 4 for H  read from file:
     ./H.pbe-kjpaw_psl.1.0.0.UPF
     MD5 check sum: d81a744832360e4a8af0b0b5b123bc2a
     Pseudo is Projector augmented-wave, Zval =  1.0
     Generated using &quot;atomic&quot; code by A. Dal Corso  v.6.3MaX
     Shape of augmentation charge: PSQ
     Using radial grid of  929 points,  2 beta functions with:
                l(1) =   0
                l(2) =   0
     Q(r) pseudized with 0 coefficients

     atomic species   valence    mass     pseudopotential
        B              3.00    10.81100     B ( 1.00)
        N              5.00    14.00670     N ( 1.00)
        O              6.00    15.99900     O ( 1.00)
        H              1.00     1.00784     H ( 1.00)

      2 Sym. Ops. (no inversion) found ( 1 have fractional translation)

   Cartesian axes

     site n.     atom                  positions (alat units)
         1           B   tau(   1) = (   0.9687500   0.0180422   0.1497278  )
         2           B   tau(   2) = (   0.9687500   0.1262954   0.1497278  )
         3           B   tau(   3) = (   0.9687500   0.2345486   0.1497278  )
         4           B   tau(   4) = (   0.9687500   0.3428018   0.1497278  )
         5           B   tau(   5) = (   0.9687500   0.4510550   0.1497278  )
         6           B   tau(   6) = (   0.9687500   0.5593082   0.1497278  )
         7           B   tau(   7) = (   0.9687500   0.6675614   0.1497278  )
         8           B   tau(   8) = (   0.9687500   0.7758146   0.1497278  )
         9           B   tau(   9) = (   0.0937500   0.0180422   0.1497278  )
        10           B   tau(  10) = (   0.0937500   0.1262954   0.1497278  )
        11           B   tau(  11) = (   0.0937500   0.2345486   0.1497278  )
        12           B   tau(  12) = (   0.0937500   0.3428018   0.1497278  )
        13           B   tau(  13) = (   0.0937500   0.4510550   0.1497278  )
        14           B   tau(  14) = (   0.0937500   0.5593082   0.1497278  )
        15           B   tau(  15) = (   0.0937500   0.6675614   0.1497278  )
        16           B   tau(  16) = (   0.0937500   0.7758146   0.1497278  )
        17           B   tau(  17) = (   0.2187500   0.0180422   0.1497278  )
        18           B   tau(  18) = (   0.2187500   0.1262954   0.1497278  )
        19           B   tau(  19) = (   0.2187500   0.2345486   0.1497278  )
        20           B   tau(  20) = (   0.2187500   0.3428018   0.1497278  )
        21           B   tau(  21) = (   0.2187500   0.4510550   0.1497278  )
        22           B   tau(  22) = (   0.2187500   0.5593082   0.1497278  )
        23           B   tau(  23) = (   0.2187500   0.6675614   0.1497278  )
        24           B   tau(  24) = (   0.2187500   0.7758146   0.1497278  )
        25           B   tau(  25) = (   0.3437500   0.0180422   0.1497278  )
        26           B   tau(  26) = (   0.3437500   0.1262954   0.1497278  )
        27           B   tau(  27) = (   0.3437500   0.2345486   0.1497278  )
        28           B   tau(  28) = (   0.3437500   0.3428018   0.1497278  )
        29           B   tau(  29) = (   0.3437500   0.4510550   0.1497278  )
        30           B   tau(  30) = (   0.3437500   0.5593082   0.1497278  )
        31           B   tau(  31) = (   0.3437500   0.6675614   0.1497278  )
        32           B   tau(  32) = (   0.3437500   0.7758146   0.1497278  )
        33           B   tau(  33) = (   0.4687500   0.0180422   0.1497278  )
        34           B   tau(  34) = (   0.4687500   0.1262954   0.1497278  )
        35           B   tau(  35) = (   0.4687500   0.2345486   0.1497278  )
        36           B   tau(  36) = (   0.4687500   0.3428018   0.1497278  )
        37           B   tau(  37) = (   0.4687500   0.4510550   0.1497278  )
        38           B   tau(  38) = (   0.4687500   0.5593082   0.1497278  )
        39           B   tau(  39) = (   0.4687500   0.6675614   0.1497278  )
        40           B   tau(  40) = (   0.4687500   0.7758146   0.1497278  )
        41           B   tau(  41) = (   0.5937500   0.0180422   0.1497278  )
        42           B   tau(  42) = (   0.5937500   0.1262954   0.1497278  )
        43           B   tau(  43) = (   0.5937500   0.2345486   0.1497278  )
        44           B   tau(  44) = (   0.5937500   0.3428018   0.1497278  )
        45           B   tau(  45) = (   0.5937500   0.4510550   0.1497278  )
        46           B   tau(  46) = (   0.5937500   0.5593082   0.1497278  )
        47           B   tau(  47) = (   0.5937500   0.6675614   0.1497278  )
        48           B   tau(  48) = (   0.5937500   0.7758146   0.1497278  )
        49           B   tau(  49) = (   0.7187500   0.0180422   0.1497278  )
        50           B   tau(  50) = (   0.7187500   0.1262954   0.1497278  )
        51           B   tau(  51) = (   0.7187500   0.2345486   0.1497278  )
        52           B   tau(  52) = (   0.7187500   0.3428018   0.1497278  )
        53           B   tau(  53) = (   0.7187500   0.4510550   0.1497278  )
        54           B   tau(  54) = (   0.7187500   0.5593082   0.1497278  )
        55           B   tau(  55) = (   0.7187500   0.6675614   0.1497278  )
        56           B   tau(  56) = (   0.7187500   0.7758146   0.1497278  )
        57           B   tau(  57) = (   0.8437500   0.0180422   0.1497278  )
        58           B   tau(  58) = (   0.8437500   0.1262954   0.1497278  )
        59           B   tau(  59) = (   0.8437500   0.2345486   0.1497278  )
        60           B   tau(  60) = (   0.8437500   0.3428018   0.1497278  )
[...]
       501           N   tau( 501) = (   0.8125000   0.4690971   0.1497278  )
       502           N   tau( 502) = (   0.8125000   0.5773503   0.1497278  )
       503           N   tau( 503) = (   0.8125000   0.6856035   0.1497278  )
       504           N   tau( 504) = (   0.8125000   0.7938567   0.1497278  )
       505           N   tau( 505) = (   0.9375000   0.0360844   0.1497278  )
       506           N   tau( 506) = (   0.9375000   0.1443376   0.1497278  )
       507           N   tau( 507) = (   0.9375000   0.2525908   0.1497278  )
       508           N   tau( 508) = (   0.9375000   0.3608439   0.1497278  )
       509           N   tau( 509) = (   0.9375000   0.4690971   0.1497278  )
       510           N   tau( 510) = (   0.9375000   0.5773503   0.1497278  )
       511           N   tau( 511) = (   0.9375000   0.6856035   0.1497278  )
       512           N   tau( 512) = (   0.9375000   0.7938567   0.1497278  )
       513           O   tau( 513) = (   0.3750000   0.3247596   0.2620236  )
       514           H   tau( 514) = (   0.3750000   0.3436490   0.2474035  )
       515           H   tau( 515) = (   0.3750000   0.3058702   0.2474035  )

     number of k points=     4
                       cart. coord. in units 2pi/alat
        k(    1) = (   0.0000000   0.0000000   0.0000000), wk =   0.2222222
        k(    2) = (   0.0000000   0.3849001   0.0000000), wk =   0.4444444
        k(    3) = (   0.3333333   0.0000000   0.0000000), wk =   0.4444444
        k(    4) = (   0.3333333   0.3849001   0.0000000), wk =   0.8888889

     Check: negative core charge=   -0.000007

     Initial potential from superposition of free atoms

     starting charge    2055.9258, renormalised to    2056.0000

     negative rho (up, down):  2.267E-01 0.000E+00
     Starting wfcs are 2054 randomized atomic wfcs
     Checking if some PAW data can be deallocated...

     Self-consistent Calculation

     iteration #  1     ecut=    51.45 Ry     beta= 0.70
     Davidson diagonalization with overlap
     ethr =  1.00E-02,  avg # of iterations =  3.0

     negative rho (up, down):  5.909E-01 0.000E+00

     total energy              =  -10210.28448277 Ry
     estimated scf accuracy    <     109.09240885 Ry

[...]

     iteration #  7     ecut=    51.45 Ry     beta= 0.70
     Davidson diagonalization with overlap
     c_bands:  5 eigenvalues not converged
     c_bands:  1 eigenvalues not converged
     c_bands:  2 eigenvalues not converged
     c_bands:  1 eigenvalues not converged
     ethr =  1.40E-06,  avg # of iterations = 55.0

[...]

     iteration #  8     ecut=    51.45 Ry     beta= 0.70
     Davidson diagonalization with overlap
     c_bands:  2 eigenvalues not converged
     c_bands:  1 eigenvalues not converged
     ethr =  4.02E-08,  avg # of iterations = 17.5

[...]

     total energy              =  -10249.33070889 Ry
     estimated scf accuracy    <       0.00001099 Ry

     iteration # 11     ecut=    51.45 Ry     beta= 0.70
     Davidson diagonalization with overlap
     ethr =  5.34E-10,  avg # of iterations =  5.0

     negative rho (up, down):  8.081E-01 0.000E+00

     End of self-consistent calculation

          k = 0.0000 0.0000 0.0000 (****** PWs)   bands (ev):

   -24.2093 -22.3329 -22.2783 -22.2695 -22.2535 -22.2531 -22.2003 -22.1968
   -22.1948 -22.1936 -22.1048 -22.1034 -22.0358 -22.0335 -22.0298 -22.0279
   -22.0273 -22.0266 -21.9756 -21.9753 -21.9715 -21.9710 -21.8289 -21.8282
   -21.8104 -21.8101 -21.8091 -21.8086 -21.7561 -21.7557 -21.7535 -21.7534
   -21.6671 -21.6671 -21.6129 -21.6129 -21.6085 -21.6084 -21.5407 -21.5405
   -21.5403 -21.5401 -21.4528 -21.4519 -21.4517 -21.4512 -21.4504 -21.4503
   -21.3829 -21.3823 -21.3803 -21.3799 -21.1929 -21.1928 -21.1919 -21.1918
   -21.1774 -21.1773 -21.1749 -21.1748 -21.1746 -21.1743 -21.1253 -21.1252
   -21.1210 -21.1210 -20.9883 -20.9882 -20.9717 -20.9717 -20.9704 -20.9704
   -20.9236 -20.9235 -20.9211 -20.9211 -20.8429 -20.8427 -20.8423 -20.8422
   -20.7317 -20.7315 -20.7314 -20.7314 -20.7251 -20.7250 -20.7246 -20.7246
   -20.5941 -20.5940 -20.5447 -20.5446 -20.5405 -20.5405 -20.4585 -20.4585
   -20.4265 -20.4264 -20.4261 -20.4260 -20.4033 -20.4031 -20.4021 -20.4019
   -20.4016 -20.4015 -20.3993 -20.3993 -20.3987 -20.3986 -20.3982 -20.3981
   -20.2358 -20.2357 -20.2355 -20.2355 -20.1752 -20.1751 -20.1747 -20.1747
   -20.0274 -20.0273 -20.0268 -20.0268 -19.9797 -19.9791 -19.9770 -19.9770
   -19.9762 -19.9762 -19.9341 -19.9335 -19.9302 -19.9293 -19.8985 -19.8984
   -19.8868 -19.8867 -19.8862 -19.8861 -19.8556 -19.8556 -19.8535 -19.8535
   -19.8046 -19.8040 -19.8034 -19.8026 -19.7354 -19.7353 -19.7350 -19.7349
   -19.6534 -19.6533 -19.6515 -19.6515 -19.6055 -19.6050 -19.6049 -19.6044
   -19.5744 -19.5744 -19.5739 -19.5739 -19.5591 -19.5591 -19.5571 -19.5571
   -19.4647 -19.4585 -19.4218 -19.4178 -19.4167 -19.4153 -19.3680 -19.3679
   -19.3652 -19.3641 -19.3640 -19.3639 -19.3620 -19.3616 -19.3548 -19.3548
   -19.3463 -19.3463 -19.3460 -19.3459 -19.3083 -19.3080 -19.3077 -19.3068
   -19.3065 -19.3054 -19.3035 -19.3030 -19.3028 -19.3028 -19.3024 -19.3023
   -19.2634 -19.2633 -19.2594 -19.2594 -19.2443 -19.2400 -19.2400 -19.2055
   -19.2024 -19.1735 -19.1735 -19.1724 -19.1723 -19.1391 -19.1384 -19.1352
   -19.1351 -19.1319 -19.1318 -19.1316 -19.1316 -19.0983 -19.0976 -19.0400
   -19.0400 -19.0396 -19.0396 -18.9932 -18.9932 -18.9928 -18.9928 -18.9662
   -18.9661 -18.9611 -18.9611 -18.9509 -18.9502 -18.9439 -18.9434 -18.9399
   -18.9397 -18.9377 -18.9377 -18.8033 -18.8032 -18.7972 -18.7971 -18.7785
   -18.7782 -18.7765 -18.7763 -18.7757 -18.7757 -18.7025 -18.7025 -18.6678
   -18.6678 -13.5521 -13.5505 -13.5505 -13.5055 -13.5010 -13.4336 -13.4336
   -13.4279 -13.4279 -13.4133 -13.4133 -13.4128 -13.4127 -13.3701 -13.3684
   -13.3439 -13.3438 -13.3394 -13.3393 -13.2504 -13.2502 -13.2499 -13.2497
   -13.2117 -13.2069 -13.1695 -13.1659 -13.1647 -13.1633 -13.1493 -13.1492
   -13.0793 -13.0792 -13.0787 -13.0786 -13.0519 -13.0518 -13.0514 -13.0508
   -13.0505 -13.0500 -13.0488 -13.0484 -13.0484 -13.0481 -13.0478 -13.0476
   -13.0164 -13.0164 -13.0151 -13.0151 -12.8805 -12.8805 -12.8771 -12.8768
   -12.8746 -12.8742 -12.8707 -12.8706 -12.8606 -12.8603 -12.8587 -12.8586
   -12.8579 -12.8577 -12.7809 -12.7809 -12.7798 -12.7797 -12.6925 -12.6918
   -12.6887 -12.6883 -12.6723 -12.6722 -12.6711 -12.6710 -12.6487 -12.6487
   -12.6484 -12.6484 -12.6291 -12.6291 -12.6022 -12.6022 -12.5958 -12.5958
   -12.5583 -12.5582 -12.5564 -12.5563 -12.5105 -12.5103 -12.5099 -12.5096
   -12.4137 -12.4137 -12.4135 -12.4134 -12.3199 -12.3197 -12.3157 -12.3157
   -12.3151 -12.3151 -12.2899 -12.2894 -12.2875 -12.2867 -12.2628 -12.2625
   -12.2624 -12.2620 -12.2618 -12.2618 -12.2232 -12.2227 -12.2224 -12.2217
   -12.1638 -12.1636 -12.1632 -12.1630 -11.9907 -11.9907 -11.9904 -11.9904
   -11.9788 -11.9462 -11.9462 -11.9437 -11.9437 -11.7760 -11.7760 -11.7250
   -11.7249 -11.7248 -11.7246 -11.7226 -11.7225 -11.7220 -11.7220 -11.6722
   -11.6722 -11.6361 -11.6361 -11.4249 -11.4249 -11.4247 -11.4247 -11.4104
   -11.4104 -11.4085 -11.4085 -11.2653 -11.2653 -11.2648 -11.2648 -11.2228
   -11.2226 -11.2204 -11.2202 -11.2187 -11.2185 -11.1670 -11.1670 -11.1265
   -11.1263 -11.1203 -11.1200 -11.1197 -11.1195 -11.1181 -11.1176 -11.1174
   -11.1169 -11.1169 -11.1167 -11.1085 -11.1085 -11.0978 -11.0978 -11.0952
   -11.0951 -11.0504 -11.0499 -11.0478 -11.0474 -10.8051 -10.8051 -10.7758
   -10.7757 -10.7752 -10.7752 -10.7606 -10.7606 -10.7584 -10.7584 -10.6311
   -10.6311 -10.6307 -10.6306 -10.5355 -10.5355 -10.5354 -10.5351 -10.5347
   -10.5345 -10.4497 -10.4496 -10.4496 -10.4495 -10.4183 -10.4179 -10.3915
   -10.3915 -10.3911 -10.3910 -10.3583 -10.3583 -10.3581 -10.3581 -10.3137
[...]
    -6.0205  -5.9871  -5.9868  -5.8999  -5.8946  -5.8416  -5.8369  -5.8349
    -5.8337  -5.7757  -5.7756  -5.7735  -5.7732  -5.7730  -5.7729  -5.7460
    -5.7459  -5.7440  -5.7432  -5.7423  -5.7419  -5.7378  -5.7377  -5.6742
    -5.6735  -5.6730  -5.6719  -5.6718  -5.6706  -5.6691  -5.6685  -5.6683
    -5.6682  -5.6679  -5.6678  -5.5949  -5.5948  -5.5909  -5.5909  -5.5606
    -5.5574  -5.5574  -5.5054  -5.5010  -5.4592  -5.4591  -5.4576  -5.4575
    -5.4209  -5.4200  -5.4180  -5.4178  -5.4147  -5.4146  -5.4134  -5.4134
    -5.3454  -5.3442  -5.2567  -5.2566  -5.2562  -5.2560  -5.1896  -5.1896
    -5.1892  -5.1891  -5.1491  -5.1490  -5.1442  -5.1442  -5.1252  -5.1245
    -5.1201  -5.1198  -5.1122  -5.1121  -5.1065  -5.1063  -4.8857  -4.8854
    -4.8805  -4.8804  -4.8482  -4.8481  -4.8445  -4.8444  -4.8443  -4.8443
    -4.7225  -4.7224  -4.6653  -4.6653  -0.2617  -0.1239  -0.0551  -0.0388
    -0.0267   0.0259   0.0510   0.0515   0.0670   0.0728   0.0985   0.0987
     0.1340   0.1356   0.1404   0.1407   0.1414   0.1420   0.1524   0.1590
     0.1594

[...]

          k = 0.3333 0.3849 0.0000 (****** PWs)   bands (ev):

   -24.2093 -22.3217 -22.2955 -22.2882 -22.2675 -22.2213 -22.1943 -22.1911
   -22.1697 -22.1625 -22.1385 -22.1165 -22.0953 -22.0932 -22.0398 -22.0221
   -22.0155 -21.9893 -21.9661 -21.9244 -21.9202 -21.8977 -21.8966 -21.8925
   -21.8252 -21.8201 -21.8018 -21.7984 -21.7752 -21.7705 -21.7292 -21.7062
   -21.7043 -21.6799 -21.6505 -21.6274 -21.5852 -21.5807 -21.5548 -21.5384
   -21.5165 -21.5119 -21.5065 -21.4888 -21.4615 -21.4209 -21.4200 -21.3913
   -21.3674 -21.3486 -21.3281 -21.3256 -21.2992 -21.2742 -21.2578 -21.2286
   -21.2128 -21.2078 -21.2060 -21.1842 -21.1447 -21.1429 -21.1201 -21.1168
   -21.0942 -21.0695 -21.0322 -20.9871 -20.9856 -20.9664 -20.9644 -20.9453
   -20.9370 -20.8988 -20.8493 -20.8314 -20.8284 -20.8112 -20.7935 -20.7925
   -20.7881 -20.7876 -20.7695 -20.7182 -20.7057 -20.7055 -20.6895 -20.6763
   -20.6566 -20.6443 -20.6379 -20.6345 -20.6119 -20.5767 -20.5335 -20.5291
   -20.4836 -20.4749 -20.4511 -20.4511 -20.4414 -20.4332 -20.3854 -20.3841
   -20.3623 -20.3461 -20.3220 -20.3024 -20.3017 -20.2703 -20.2676 -20.2556
   -20.2470 -20.2292 -20.1787 -20.1780 -20.1692 -20.1591 -20.1562 -20.1358
   -20.1275 -20.1185 -20.0978 -20.0808 -20.0629 -20.0616 -20.0532 -20.0324
   -20.0166 -19.9994 -19.9988 -19.9956 -19.9535 -19.9527 -19.9372 -19.9164
   -19.8974 -19.8960 -19.8678 -19.8397 -19.8354 -19.8043 -19.7836 -19.7654
   -19.7627 -19.7605 -19.7368 -19.7113 -19.7090 -19.7084 -19.6953 -19.6673
   -19.6508 -19.6453 -19.6410 -19.6225 -19.6179 -19.6174 -19.6118 -19.6085
   -19.6084 -19.5878 -19.5610 -19.5365 -19.5358 -19.5342 -19.5268 -19.5199
   -19.5155 -19.5131 -19.4977 -19.4960 -19.4896 -19.4869 -19.4627 -19.4439
   -19.4395 -19.4045 -19.3949 -19.3912 -19.3724 -19.3582 -19.3568 -19.3566
   -19.3444 -19.3431 -19.3360 -19.3347 -19.3345 -19.3222 -19.3089 -19.2844
   -19.2816 -19.2757 -19.2729 -19.2651 -19.2580 -19.2496 -19.2487 -19.2363
   -19.2346 -19.2180 -19.2132 -19.2108 -19.2045 -19.2033 -19.1999 -19.1984
   -19.1978 -19.1971 -19.1906 -19.1901 -19.1653 -19.1547 -19.1443 -19.1408
   -19.1376 -19.1321 -19.1318 -19.1240 -19.1221 -19.0907 -19.0898 -19.0809
   -19.0745 -19.0682 -19.0643 -19.0606 -19.0597 -19.0563 -19.0217 -18.9993
   -18.9722 -18.9563 -18.9511 -18.9409 -18.9214 -18.9157 -18.9120 -18.9090
   -18.9084 -18.8649 -18.8570 -18.8513 -18.8502 -18.8407 -18.8333 -18.8041
   -18.7846 -18.7635 -18.7603 -18.7494 -18.7151 -18.7099 -18.7083 -18.6792
   -18.6718 -13.5371 -13.5183 -13.5097 -13.4950 -13.4943 -13.4874 -13.4807
   -13.4306 -13.4186 -13.4144 -13.3950 -13.3931 -13.3865 -13.3849 -13.3709
   -13.3328 -13.3317 -13.3200 -13.3169 -13.3038 -13.2966 -13.2809 -13.2747
   -13.2691 -13.2661 -13.2288 -13.2152 -13.2037 -13.1974 -13.1676 -13.1641
   -13.1420 -13.1082 -13.0969 -13.0964 -13.0926 -13.0850 -13.0630 -13.0517
   -13.0308 -13.0304 -13.0130 -13.0110 -12.9590 -12.9584 -12.9532 -12.9491
   -12.9435 -12.9397 -12.9371 -12.9298 -12.9149 -12.8951 -12.8941 -12.8790
   -12.8762 -12.8618 -12.8594 -12.8565 -12.8085 -12.7866 -12.7840 -12.7826
   -12.7744 -12.7737 -12.7727 -12.7479 -12.7369 -12.7323 -12.7232 -12.7228
   -12.7121 -12.7103 -12.6899 -12.6840 -12.6682 -12.6681 -12.6656 -12.6636
   -12.6599 -12.6573 -12.6441 -12.6411 -12.6270 -12.6251 -12.6138 -12.6027
   -12.6006 -12.5843 -12.5738 -12.5705 -12.5656 -12.5648 -12.5569 -12.5536
   -12.5404 -12.5393 -12.5040 -12.4755 -12.4670 -12.4628 -12.4506 -12.4154
   -12.4092 -12.4080 -12.4010 -12.3977 -12.3854 -12.3549 -12.3021 -12.2371
   -12.2303 -12.2177 -12.2068 -12.1212 -12.1077 -12.0969 -12.0722 -12.0343
   -12.0220 -11.9826 -11.9788 -11.9428 -11.9289 -11.9251 -11.9137 -11.9118
   -11.9030 -11.8896 -11.8755 -11.8747 -11.8622 -11.8599 -11.8382 -11.8025
   -11.7770 -11.7638 -11.7595 -11.7165 -11.6472 -11.6323 -11.6094 -11.6092
   -11.6012 -11.5980 -11.5522 -11.5421 -11.5325 -11.5304 -11.5303 -11.5220
   -11.5152 -11.5133 -11.5091 -11.5043 -11.5035 -11.4654 -11.4266 -11.4186
   -11.3522 -11.3204 -11.3136 -11.3058 -11.3042 -11.2977 -11.2526 -11.2073
   -11.2068 -11.1541 -11.1451 -11.1444 -11.1406 -11.1106 -11.0734 -11.0682
   -11.0647 -11.0001 -10.9960 -10.9502 -10.9162 -10.9153 -10.9020 -10.8875
   -10.8860 -10.8722 -10.8558 -10.8459 -10.8456 -10.8300 -10.7876 -10.7745
   -10.7709 -10.7155 -10.7069 -10.6967 -10.6823 -10.6810 -10.6808 -10.6782
   -10.6663 -10.6631 -10.6567 -10.6472 -10.6415 -10.6045 -10.5726 -10.5718
   -10.5556 -10.5524 -10.5353 -10.5057 -10.4823 -10.4146 -10.3979 -10.3661
   -10.3611 -10.3605 -10.3524 -10.3446 -10.3248 -10.3241 -10.3237 -10.2772
[...]
    -6.0167  -6.0063  -5.9987  -5.9973  -5.9866  -5.9691  -5.9600  -5.9521
    -5.9453  -5.9130  -5.8924  -5.8696  -5.8189  -5.8116  -5.7920  -5.7673
    -5.7602  -5.7600  -5.7424  -5.7229  -5.7226  -5.7208  -5.7128  -5.7123
    -5.6884  -5.6654  -5.6472  -5.6238  -5.6167  -5.6138  -5.6024  -5.5951
    -5.5736  -5.5730  -5.5604  -5.5480  -5.5367  -5.5247  -5.5244  -5.5229
    -5.5167  -5.5121  -5.5117  -5.5057  -5.5008  -5.4949  -5.4936  -5.4478
    -5.4311  -5.4229  -5.4193  -5.4174  -5.4146  -5.4144  -5.3851  -5.3835
    -5.3407  -5.3399  -5.3288  -5.3155  -5.3114  -5.3112  -5.3069  -5.2922
    -5.2823  -5.2309  -5.2090  -5.1588  -5.1362  -5.1189  -5.1148  -5.0796
    -5.0658  -5.0647  -5.0558  -5.0553  -4.9829  -4.9752  -4.9685  -4.9655
    -4.9529  -4.9389  -4.8904  -4.8572  -4.8252  -4.8186  -4.8007  -4.7415
    -4.7358  -4.7339  -4.6848  -4.6718  -0.2601  -0.1146  -0.0901  -0.0619
    -0.0063   0.0500   0.0566   0.0624   0.0772   0.0939   0.1019   0.1040
     0.1052   0.1233   0.1378   0.1552   0.1643   0.1675   0.1707   0.1757
     0.1770

     highest occupied, lowest unoccupied level (ev):    -4.6503   -0.2617

!    total energy              =  -10249.33071205 Ry
     total all-electron energy =    -40959.942838 Ry
     estimated scf accuracy    <       0.00000011 Ry

     The total energy is the sum of the following terms:
     one-electron contribution =  -90020.47708047 Ry
     hartree contribution      =   45421.85838210 Ry
     xc contribution           =   -2267.17713389 Ry
     ewald contribution        =   40000.17801879 Ry
     one-center paw contrib.   =   -3383.71289858 Ry

     convergence has been achieved in  11 iterations

     Writing all to output data dir ./hBN_water_Oup_Hdown.save/

     General routines

     Parallel routines

   This run was terminated on:   2: 8:15  26Oct2022

   JOB DONE.