     Program PWSCF v.7.1 starts on 25Oct2022 at 20: 0:46
        Git branch: HEAD
        Last git commit: 564a7b486665e8dd0223d6e514b84195d1a96c10
        Last git commit date: Tue Jun 14 16:16:48 2022 +0000
        Last git commit subject: Merge branch 'update_version_number' into 'develop

     Reading input from scf.in

     Current dimensions of program PWSCF are:
     Max number of different atomic species (ntypx) = 10
     Max number of k-points (npk) =  40000
     Max angular momentum in pseudopotentials (lmaxx) =  4
     file N.pbe-n-kjpaw_psl.1.0.0.UPF: wavefunction(s)  2S renormalized
     file O.pbe-n-kjpaw_psl.1.0.0.UPF: wavefunction(s)  2S 2P renormalized
     file H.pbe-kjpaw_psl.1.0.0.UPF: wavefunction(s)  1S renormalized
     Message from routine setup:
     using ibrav=0 with symmetry is DISCOURAGED, use correct ibrav instead

     R & G space division:  proc/nbgrp/npool/nimage =     128
     Subspace diagonalization in iterative solution of the eigenvalue problem:
     one sub-group per band group will be used

     Using Slab Decomposition

     bravais-lattice index     =            0
     lattice parameter (alat)  =      75.7265  a.u.
     unit-cell volume          =  281543.9584 (a.u.)^3
     number of atoms/cell      =          515
     number of atomic types    =            4
     number of electrons       =      2056.00
     number of Kohn-Sham states=         1049
     kinetic-energy cutoff     =      51.4490  Ry
     charge density cutoff     =     205.7961  Ry
     scf convergence threshold =      1.0E-06
     mixing beta               =       0.7000
     number of iterations used =            8  plain     mixing
     Exchange-correlation= SLA  PW   PBX  PBC
                           (   1   4   3   4   0   0   0)

     celldm(1)=  75.726466  celldm(2)=   0.000000  celldm(3)=   0.000000
     celldm(4)=   0.000000  celldm(5)=   0.000000  celldm(6)=   0.000000

     crystal axes: (cart. coord. in units of alat)
               a(1) = (   1.000000   0.000000   0.000000 )
               a(2) = (   0.000000   0.866026   0.000000 )
               a(3) = (   0.000000   0.000000   0.748639 )

     reciprocal axes: (cart. coord. in units 2 pi/alat)
               b(1) = (  1.000000  0.000000  0.000000 )
               b(2) = (  0.000000  1.154700  0.000000 )
               b(3) = (  0.000000  0.000000  1.335757 )

     PseudoPot. # 1 for B  read from file:
     ./B.pbe-n-kjpaw_psl.1.0.0.UPF
     MD5 check sum: 8c825a5969375aca5c2c6ad5945b3059
     Pseudo is Projector augmented-wave + core cor, Zval =  3.0
     Generated using &quot;atomic&quot; code by A. Dal Corso  v.6.3
     Shape of augmentation charge: PSQ
     Using radial grid of 1059 points,  4 beta functions with:
                l(1) =   0
                l(2) =   0
                l(3) =   1
                l(4) =   1
     Q(r) pseudized with 0 coefficients

     PseudoPot. # 2 for N  read from file:
     ./N.pbe-n-kjpaw_psl.1.0.0.UPF
     MD5 check sum: 14c48229446f9f2d411169a3abcbc3fa
     Pseudo is Projector augmented-wave + core cor, Zval =  5.0
     Generated using &quot;atomic&quot; code by A. Dal Corso  v.6.3
     Shape of augmentation charge: PSQ
     Using radial grid of 1085 points,  4 beta functions with:
                l(1) =   0
                l(2) =   0
                l(3) =   1
                l(4) =   1
     Q(r) pseudized with 0 coefficients

     PseudoPot. # 3 for O  read from file:
     ./O.pbe-n-kjpaw_psl.1.0.0.UPF
     MD5 check sum: e99d9cef9b487d1ca56f5b95ecd0fd7a
     Pseudo is Projector augmented-wave + core cor, Zval =  6.0
     Generated using &quot;atomic&quot; code by A. Dal Corso  v.6.3
     Shape of augmentation charge: PSQ
     Using radial grid of 1095 points,  4 beta functions with:
                l(1) =   0
                l(2) =   0
                l(3) =   1
                l(4) =   1
     Q(r) pseudized with 0 coefficients

     PseudoPot. # 4 for H  read from file:
     ./H.pbe-kjpaw_psl.1.0.0.UPF
     MD5 check sum: d81a744832360e4a8af0b0b5b123bc2a
     Pseudo is Projector augmented-wave, Zval =  1.0
     Generated using &quot;atomic&quot; code by A. Dal Corso  v.6.3MaX
     Shape of augmentation charge: PSQ
     Using radial grid of  929 points,  2 beta functions with:
                l(1) =   0
                l(2) =   0
     Q(r) pseudized with 0 coefficients

     atomic species   valence    mass     pseudopotential
        B              3.00    10.81100     B ( 1.00)
        N              5.00    14.00670     N ( 1.00)
        O              6.00    15.99900     O ( 1.00)
        H              1.00     1.00784     H ( 1.00)

      2 Sym. Ops. (no inversion) found ( 1 have fractional translation)

   Cartesian axes

     site n.     atom                  positions (alat units)
         1           B   tau(   1) = (   0.9687500   0.0180422   0.1497278  )
         2           B   tau(   2) = (   0.9687500   0.1262954   0.1497278  )
         3           B   tau(   3) = (   0.9687500   0.2345486   0.1497278  )
         4           B   tau(   4) = (   0.9687500   0.3428018   0.1497278  )
         5           B   tau(   5) = (   0.9687500   0.4510550   0.1497278  )
         6           B   tau(   6) = (   0.9687500   0.5593082   0.1497278  )
         7           B   tau(   7) = (   0.9687500   0.6675614   0.1497278  )
         8           B   tau(   8) = (   0.9687500   0.7758146   0.1497278  )
         9           B   tau(   9) = (   0.0937500   0.0180422   0.1497278  )
        10           B   tau(  10) = (   0.0937500   0.1262954   0.1497278  )
        11           B   tau(  11) = (   0.0937500   0.2345486   0.1497278  )
        12           B   tau(  12) = (   0.0937500   0.3428018   0.1497278  )
        13           B   tau(  13) = (   0.0937500   0.4510550   0.1497278  )
        14           B   tau(  14) = (   0.0937500   0.5593082   0.1497278  )
        15           B   tau(  15) = (   0.0937500   0.6675614   0.1497278  )
        16           B   tau(  16) = (   0.0937500   0.7758146   0.1497278  )
        17           B   tau(  17) = (   0.2187500   0.0180422   0.1497278  )
        18           B   tau(  18) = (   0.2187500   0.1262954   0.1497278  )
        19           B   tau(  19) = (   0.2187500   0.2345486   0.1497278  )
        20           B   tau(  20) = (   0.2187500   0.3428018   0.1497278  )
        21           B   tau(  21) = (   0.2187500   0.4510550   0.1497278  )
        22           B   tau(  22) = (   0.2187500   0.5593082   0.1497278  )
        23           B   tau(  23) = (   0.2187500   0.6675614   0.1497278  )
        24           B   tau(  24) = (   0.2187500   0.7758146   0.1497278  )
        25           B   tau(  25) = (   0.3437500   0.0180422   0.1497278  )
        26           B   tau(  26) = (   0.3437500   0.1262954   0.1497278  )
        27           B   tau(  27) = (   0.3437500   0.2345486   0.1497278  )
        28           B   tau(  28) = (   0.3437500   0.3428018   0.1497278  )
        29           B   tau(  29) = (   0.3437500   0.4510550   0.1497278  )
        30           B   tau(  30) = (   0.3437500   0.5593082   0.1497278  )
        31           B   tau(  31) = (   0.3437500   0.6675614   0.1497278  )
        32           B   tau(  32) = (   0.3437500   0.7758146   0.1497278  )
        33           B   tau(  33) = (   0.4687500   0.0180422   0.1497278  )
        34           B   tau(  34) = (   0.4687500   0.1262954   0.1497278  )
        35           B   tau(  35) = (   0.4687500   0.2345486   0.1497278  )
        36           B   tau(  36) = (   0.4687500   0.3428018   0.1497278  )
        37           B   tau(  37) = (   0.4687500   0.4510550   0.1497278  )
        38           B   tau(  38) = (   0.4687500   0.5593082   0.1497278  )
        39           B   tau(  39) = (   0.4687500   0.6675614   0.1497278  )
        40           B   tau(  40) = (   0.4687500   0.7758146   0.1497278  )
        41           B   tau(  41) = (   0.5937500   0.0180422   0.1497278  )
        42           B   tau(  42) = (   0.5937500   0.1262954   0.1497278  )
        43           B   tau(  43) = (   0.5937500   0.2345486   0.1497278  )
        44           B   tau(  44) = (   0.5937500   0.3428018   0.1497278  )
        45           B   tau(  45) = (   0.5937500   0.4510550   0.1497278  )
        46           B   tau(  46) = (   0.5937500   0.5593082   0.1497278  )
        47           B   tau(  47) = (   0.5937500   0.6675614   0.1497278  )
        48           B   tau(  48) = (   0.5937500   0.7758146   0.1497278  )
        49           B   tau(  49) = (   0.7187500   0.0180422   0.1497278  )
        50           B   tau(  50) = (   0.7187500   0.1262954   0.1497278  )
        51           B   tau(  51) = (   0.7187500   0.2345486   0.1497278  )
        52           B   tau(  52) = (   0.7187500   0.3428018   0.1497278  )
        53           B   tau(  53) = (   0.7187500   0.4510550   0.1497278  )
        54           B   tau(  54) = (   0.7187500   0.5593082   0.1497278  )
        55           B   tau(  55) = (   0.7187500   0.6675614   0.1497278  )
        56           B   tau(  56) = (   0.7187500   0.7758146   0.1497278  )
        57           B   tau(  57) = (   0.8437500   0.0180422   0.1497278  )
        58           B   tau(  58) = (   0.8437500   0.1262954   0.1497278  )
        59           B   tau(  59) = (   0.8437500   0.2345486   0.1497278  )
        60           B   tau(  60) = (   0.8437500   0.3428018   0.1497278  )
[...]
       501           N   tau( 501) = (   0.8125000   0.4690971   0.1497278  )
       502           N   tau( 502) = (   0.8125000   0.5773503   0.1497278  )
       503           N   tau( 503) = (   0.8125000   0.6856035   0.1497278  )
       504           N   tau( 504) = (   0.8125000   0.7938567   0.1497278  )
       505           N   tau( 505) = (   0.9375000   0.0360844   0.1497278  )
       506           N   tau( 506) = (   0.9375000   0.1443376   0.1497278  )
       507           N   tau( 507) = (   0.9375000   0.2525908   0.1497278  )
       508           N   tau( 508) = (   0.9375000   0.3608439   0.1497278  )
       509           N   tau( 509) = (   0.9375000   0.4690971   0.1497278  )
       510           N   tau( 510) = (   0.9375000   0.5773503   0.1497278  )
       511           N   tau( 511) = (   0.9375000   0.6856035   0.1497278  )
       512           N   tau( 512) = (   0.9375000   0.7938567   0.1497278  )
       513           O   tau( 513) = (   0.3750000   0.3247596   0.2444631  )
       514           H   tau( 514) = (   0.3750000   0.3436490   0.2298429  )
       515           H   tau( 515) = (   0.3750000   0.3058702   0.2298429  )

     number of k points=     4
                       cart. coord. in units 2pi/alat
        k(    1) = (   0.0000000   0.0000000   0.0000000), wk =   0.2222222
        k(    2) = (   0.0000000   0.3849001   0.0000000), wk =   0.4444444
        k(    3) = (   0.3333333   0.0000000   0.0000000), wk =   0.4444444
        k(    4) = (   0.3333333   0.3849001   0.0000000), wk =   0.8888889

     Check: negative core charge=   -0.000007

     Initial potential from superposition of free atoms

     starting charge    2055.9258, renormalised to    2056.0000

     negative rho (up, down):  2.269E-01 0.000E+00
     Starting wfcs are 2054 randomized atomic wfcs
     Checking if some PAW data can be deallocated...

     Self-consistent Calculation

     iteration #  1     ecut=    51.45 Ry     beta= 0.70
     Davidson diagonalization with overlap
     ethr =  1.00E-02,  avg # of iterations =  3.0

     negative rho (up, down):  5.914E-01 0.000E+00

     total energy              =  -10210.29316811 Ry
     estimated scf accuracy    <     109.07633003 Ry

[...]

     iteration #  7     ecut=    51.45 Ry     beta= 0.70
     Davidson diagonalization with overlap
     c_bands:  1 eigenvalues not converged
     c_bands:  1 eigenvalues not converged
     ethr =  1.37E-06,  avg # of iterations = 58.0

[...]

     total energy              =  -10249.33161807 Ry
     estimated scf accuracy    <       0.00001186 Ry

     iteration # 11     ecut=    51.45 Ry     beta= 0.70
     Davidson diagonalization with overlap
     ethr =  5.77E-10,  avg # of iterations =  3.0

     negative rho (up, down):  8.088E-01 0.000E+00

     End of self-consistent calculation

          k = 0.0000 0.0000 0.0000 (****** PWs)   bands (ev):

   -24.1507 -22.3367 -22.2823 -22.2702 -22.2547 -22.2543 -22.2028 -22.1980
   -22.1955 -22.1942 -22.1068 -22.1045 -22.0397 -22.0361 -22.0311 -22.0287
   -22.0280 -22.0271 -21.9773 -21.9770 -21.9721 -21.9716 -21.8312 -21.8297
   -21.8123 -21.8120 -21.8102 -21.8097 -21.7579 -21.7570 -21.7544 -21.7542
   -21.6692 -21.6691 -21.6148 -21.6147 -21.6091 -21.6091 -21.5425 -21.5420
   -21.5415 -21.5414 -21.4550 -21.4535 -21.4534 -21.4524 -21.4514 -21.4511
   -21.3847 -21.3838 -21.3812 -21.3808 -21.1958 -21.1953 -21.1935 -21.1933
   -21.1791 -21.1790 -21.1760 -21.1758 -21.1755 -21.1754 -21.1271 -21.1269
   -21.1217 -21.1216 -20.9901 -20.9898 -20.9736 -20.9734 -20.9714 -20.9714
   -20.9254 -20.9252 -20.9220 -20.9220 -20.8446 -20.8442 -20.8437 -20.8435
   -20.7334 -20.7330 -20.7329 -20.7328 -20.7266 -20.7264 -20.7257 -20.7257
   -20.5963 -20.5961 -20.5465 -20.5463 -20.5411 -20.5411 -20.4604 -20.4602
   -20.4288 -20.4283 -20.4278 -20.4275 -20.4057 -20.4053 -20.4038 -20.4033
   -20.4032 -20.4029 -20.4002 -20.4002 -20.3994 -20.3993 -20.3988 -20.3987
   -20.2373 -20.2372 -20.2368 -20.2368 -20.1770 -20.1767 -20.1759 -20.1759
   -20.0295 -20.0291 -20.0282 -20.0281 -19.9822 -19.9812 -19.9786 -19.9785
   -19.9773 -19.9773 -19.9359 -19.9352 -19.9308 -19.9300 -19.9004 -19.9003
   -19.8884 -19.8881 -19.8876 -19.8874 -19.8572 -19.8571 -19.8545 -19.8544
   -19.8064 -19.8056 -19.8043 -19.8036 -19.7371 -19.7369 -19.7362 -19.7362
   -19.6557 -19.6555 -19.6526 -19.6526 -19.6075 -19.6066 -19.6062 -19.6058
   -19.5761 -19.5759 -19.5751 -19.5751 -19.5608 -19.5607 -19.5581 -19.5581
   -19.4688 -19.4597 -19.4241 -19.4188 -19.4175 -19.4159 -19.3718 -19.3718
   -19.3675 -19.3662 -19.3654 -19.3652 -19.3638 -19.3632 -19.3554 -19.3554
   -19.3475 -19.3473 -19.3470 -19.3469 -19.3113 -19.3104 -19.3100 -19.3084
   -19.3080 -19.3066 -19.3044 -19.3038 -19.3035 -19.3035 -19.3031 -19.3030
   -19.2650 -19.2649 -19.2602 -19.2602 -19.2460 -19.2407 -19.2407 -19.2070
   -19.2031 -19.1748 -19.1748 -19.1733 -19.1733 -19.1423 -19.1409 -19.1368
   -19.1365 -19.1327 -19.1326 -19.1323 -19.1322 -19.0995 -19.0984 -19.0419
   -19.0418 -19.0409 -19.0408 -18.9948 -18.9947 -18.9939 -18.9938 -18.9687
   -18.9684 -18.9618 -18.9618 -18.9533 -18.9522 -18.9448 -18.9443 -18.9404
   -18.9402 -18.9385 -18.9384 -18.8064 -18.8060 -18.7982 -18.7981 -18.7795
   -18.7791 -18.7771 -18.7769 -18.7764 -18.7763 -18.7037 -18.7037 -18.6686
   -18.6686 -13.5549 -13.5527 -13.5526 -13.5075 -13.5017 -13.4377 -13.4377
   -13.4294 -13.4293 -13.4139 -13.4139 -13.4134 -13.4133 -13.3722 -13.3695
   -13.3456 -13.3456 -13.3400 -13.3400 -13.2522 -13.2520 -13.2514 -13.2512
   -13.2152 -13.2083 -13.1720 -13.1670 -13.1656 -13.1638 -13.1506 -13.1504
   -13.0817 -13.0817 -13.0804 -13.0804 -13.0541 -13.0540 -13.0534 -13.0521
   -13.0519 -13.0511 -13.0499 -13.0493 -13.0492 -13.0489 -13.0485 -13.0483
   -13.0178 -13.0178 -13.0161 -13.0161 -12.8842 -12.8840 -12.8799 -12.8791
   -12.8760 -12.8755 -12.8718 -12.8715 -12.8614 -12.8611 -12.8594 -12.8593
   -12.8584 -12.8583 -12.7826 -12.7826 -12.7808 -12.7808 -12.6956 -12.6946
   -12.6903 -12.6899 -12.6733 -12.6732 -12.6718 -12.6718 -12.6499 -12.6498
   -12.6494 -12.6494 -12.6310 -12.6310 -12.6033 -12.6033 -12.5967 -12.5967
   -12.5600 -12.5599 -12.5574 -12.5573 -12.5119 -12.5115 -12.5112 -12.5108
   -12.4153 -12.4153 -12.4148 -12.4147 -12.3229 -12.3225 -12.3173 -12.3172
   -12.3163 -12.3163 -12.2912 -12.2909 -12.2882 -12.2875 -12.2644 -12.2640
   -12.2639 -12.2634 -12.2631 -12.2631 -12.2246 -12.2243 -12.2234 -12.2227
   -12.1649 -12.1646 -12.1644 -12.1640 -11.9923 -11.9923 -11.9916 -11.9916
   -11.9481 -11.9481 -11.9448 -11.9447 -11.9231 -11.7776 -11.7776 -11.7267
   -11.7265 -11.7262 -11.7260 -11.7239 -11.7239 -11.7233 -11.7233 -11.6736
   -11.6736 -11.6375 -11.6374 -11.4265 -11.4264 -11.4260 -11.4260 -11.4123
   -11.4123 -11.4097 -11.4097 -11.2672 -11.2670 -11.2662 -11.2661 -11.2250
   -11.2248 -11.2219 -11.2216 -11.2195 -11.2193 -11.1683 -11.1682 -11.1309
   -11.1305 -11.1222 -11.1218 -11.1217 -11.1210 -11.1192 -11.1188 -11.1184
   -11.1178 -11.1177 -11.1175 -11.1092 -11.1092 -11.0982 -11.0982 -11.0956
   -11.0956 -11.0523 -11.0516 -11.0488 -11.0484 -10.8066 -10.8066 -10.7772
   -10.7770 -10.7766 -10.7765 -10.7625 -10.7624 -10.7595 -10.7595 -10.6328
   -10.6327 -10.6324 -10.6322 -10.5371 -10.5370 -10.5369 -10.5364 -10.5359
   -10.5358 -10.4512 -10.4511 -10.4510 -10.4509 -10.4201 -10.4193 -10.3929
   -10.3929 -10.3926 -10.3924 -10.3598 -10.3597 -10.3595 -10.3594 -10.3157
[...]
    -5.9882  -5.9878  -5.9656  -5.9035  -5.8957  -5.8444  -5.8381  -5.8355
    -5.8343  -5.7787  -5.7773  -5.7752  -5.7745  -5.7741  -5.7740  -5.7490
    -5.7479  -5.7454  -5.7444  -5.7431  -5.7427  -5.7384  -5.7383  -5.6777
    -5.6755  -5.6752  -5.6734  -5.6733  -5.6715  -5.6700  -5.6692  -5.6690
    -5.6689  -5.6685  -5.6685  -5.5969  -5.5964  -5.5918  -5.5917  -5.5623
    -5.5583  -5.5582  -5.5071  -5.5015  -5.4608  -5.4605  -5.4585  -5.4584
    -5.4242  -5.4222  -5.4196  -5.4192  -5.4155  -5.4152  -5.4140  -5.4139
    -5.3469  -5.3450  -5.2585  -5.2584  -5.2575  -5.2572  -5.1913  -5.1911
    -5.1903  -5.1901  -5.1515  -5.1510  -5.1450  -5.1449  -5.1277  -5.1263
    -5.1209  -5.1206  -5.1130  -5.1130  -5.1073  -5.1069  -4.8886  -4.8879
    -4.8815  -4.8814  -4.8498  -4.8494  -4.8452  -4.8451  -4.8450  -4.8449
    -4.7238  -4.7236  -4.6663  -4.6662  -0.2090  -0.1129  -0.0548  -0.0373
    -0.0261   0.0328   0.0471   0.0485   0.0680   0.0733   0.0957   0.0966
     0.1277   0.1325   0.1386   0.1395   0.1402   0.1412   0.1491   0.1560
     0.1569

[...]

          k = 0.3333 0.3849 0.0000 (****** PWs)   bands (ev):

   -24.1507 -22.3270 -22.2971 -22.2891 -22.2684 -22.2234 -22.1959 -22.1929
   -22.1712 -22.1633 -22.1399 -22.1185 -22.0967 -22.0940 -22.0413 -22.0240
   -22.0167 -21.9903 -21.9676 -21.9266 -21.9222 -21.8988 -21.8975 -21.8937
   -21.8265 -21.8219 -21.8034 -21.8005 -21.7761 -21.7717 -21.7306 -21.7082
   -21.7055 -21.6810 -21.6518 -21.6290 -21.5865 -21.5825 -21.5559 -21.5401
   -21.5186 -21.5142 -21.5073 -21.4897 -21.4628 -21.4226 -21.4213 -21.3924
   -21.3687 -21.3510 -21.3296 -21.3264 -21.3010 -21.2753 -21.2592 -21.2300
   -21.2142 -21.2094 -21.2073 -21.1855 -21.1466 -21.1442 -21.1212 -21.1182
   -21.0957 -21.0708 -21.0336 -20.9896 -20.9870 -20.9677 -20.9652 -20.9475
   -20.9376 -20.9001 -20.8508 -20.8332 -20.8299 -20.8130 -20.7953 -20.7947
   -20.7892 -20.7885 -20.7703 -20.7196 -20.7071 -20.7067 -20.6915 -20.6773
   -20.6577 -20.6457 -20.6394 -20.6364 -20.6129 -20.5782 -20.5349 -20.5306
   -20.4850 -20.4763 -20.4526 -20.4525 -20.4429 -20.4347 -20.3868 -20.3866
   -20.3632 -20.3475 -20.3234 -20.3040 -20.3030 -20.2717 -20.2696 -20.2569
   -20.2481 -20.2306 -20.1808 -20.1801 -20.1704 -20.1607 -20.1570 -20.1374
   -20.1289 -20.1196 -20.0991 -20.0829 -20.0644 -20.0626 -20.0545 -20.0340
   -20.0186 -20.0007 -19.9998 -19.9970 -19.9550 -19.9543 -19.9384 -19.9178
   -19.8990 -19.8974 -19.8693 -19.8409 -19.8368 -19.8059 -19.7862 -19.7670
   -19.7635 -19.7621 -19.7381 -19.7136 -19.7106 -19.7096 -19.6963 -19.6686
   -19.6521 -19.6475 -19.6425 -19.6242 -19.6193 -19.6185 -19.6134 -19.6109
   -19.6097 -19.5885 -19.5624 -19.5384 -19.5373 -19.5364 -19.5286 -19.5207
   -19.5172 -19.5140 -19.4992 -19.4972 -19.4910 -19.4882 -19.4641 -19.4455
   -19.4412 -19.4061 -19.3964 -19.3927 -19.3738 -19.3607 -19.3589 -19.3582
   -19.3462 -19.3459 -19.3367 -19.3360 -19.3357 -19.3230 -19.3100 -19.2867
   -19.2834 -19.2777 -19.2738 -19.2663 -19.2596 -19.2505 -19.2496 -19.2373
   -19.2359 -19.2201 -19.2159 -19.2123 -19.2066 -19.2048 -19.2008 -19.1993
   -19.1985 -19.1978 -19.1911 -19.1906 -19.1665 -19.1573 -19.1458 -19.1412
   -19.1394 -19.1331 -19.1327 -19.1256 -19.1232 -19.0926 -19.0912 -19.0828
   -19.0756 -19.0694 -19.0656 -19.0614 -19.0602 -19.0574 -19.0229 -19.0007
   -18.9738 -18.9576 -18.9530 -18.9426 -18.9226 -18.9167 -18.9132 -18.9102
   -18.9096 -18.8670 -18.8591 -18.8523 -18.8507 -18.8417 -18.8339 -18.8059
   -18.7859 -18.7645 -18.7617 -18.7503 -18.7166 -18.7108 -18.7089 -18.6799
   -18.6726 -13.5394 -13.5214 -13.5131 -13.4967 -13.4963 -13.4882 -13.4812
   -13.4324 -13.4203 -13.4159 -13.3972 -13.3959 -13.3874 -13.3858 -13.3716
   -13.3346 -13.3329 -13.3229 -13.3182 -13.3052 -13.2977 -13.2815 -13.2761
   -13.2704 -13.2673 -13.2306 -13.2169 -13.2050 -13.1989 -13.1689 -13.1655
   -13.1437 -13.1108 -13.0983 -13.0976 -13.0931 -13.0862 -13.0646 -13.0532
   -13.0326 -13.0320 -13.0143 -13.0127 -12.9619 -12.9600 -12.9543 -12.9507
   -12.9449 -12.9409 -12.9383 -12.9318 -12.9158 -12.8968 -12.8954 -12.8803
   -12.8777 -12.8634 -12.8604 -12.8576 -12.8107 -12.7894 -12.7854 -12.7844
   -12.7751 -12.7751 -12.7740 -12.7494 -12.7384 -12.7338 -12.7248 -12.7240
   -12.7138 -12.7117 -12.6916 -12.6856 -12.6701 -12.6694 -12.6671 -12.6643
   -12.6626 -12.6581 -12.6454 -12.6418 -12.6281 -12.6266 -12.6151 -12.6040
   -12.6017 -12.5852 -12.5752 -12.5716 -12.5672 -12.5661 -12.5585 -12.5545
   -12.5419 -12.5403 -12.5055 -12.4768 -12.4684 -12.4642 -12.4519 -12.4169
   -12.4106 -12.4091 -12.4022 -12.3990 -12.3868 -12.3562 -12.3035 -12.2385
   -12.2318 -12.2191 -12.2082 -12.1226 -12.1091 -12.0983 -12.0736 -12.0359
   -12.0235 -11.9841 -11.9467 -11.9304 -11.9258 -11.9232 -11.9153 -11.9131
   -11.9036 -11.8908 -11.8772 -11.8758 -11.8631 -11.8608 -11.8396 -11.8040
   -11.7783 -11.7654 -11.7610 -11.7182 -11.6489 -11.6337 -11.6109 -11.6107
   -11.6027 -11.5993 -11.5539 -11.5464 -11.5339 -11.5318 -11.5316 -11.5225
   -11.5164 -11.5147 -11.5102 -11.5048 -11.5041 -11.4669 -11.4281 -11.4200
   -11.3536 -11.3218 -11.3150 -11.3071 -11.3056 -11.2992 -11.2541 -11.2088
   -11.2083 -11.1558 -11.1468 -11.1459 -11.1419 -11.1120 -11.0748 -11.0695
   -11.0660 -11.0015 -10.9975 -10.9519 -10.9181 -10.9169 -10.9030 -10.8889
   -10.8875 -10.8745 -10.8565 -10.8475 -10.8470 -10.8314 -10.7890 -10.7759
   -10.7726 -10.7170 -10.7087 -10.6991 -10.6840 -10.6825 -10.6821 -10.6797
   -10.6671 -10.6646 -10.6571 -10.6486 -10.6427 -10.6059 -10.5742 -10.5730
   -10.5570 -10.5538 -10.5367 -10.5072 -10.4838 -10.4160 -10.3995 -10.3675
   -10.3627 -10.3619 -10.3543 -10.3460 -10.3266 -10.3255 -10.3249 -10.2790
[...]
    -6.0080  -6.0016  -5.9993  -5.9876  -5.9709  -5.9665  -5.9612  -5.9516
    -5.9449  -5.9138  -5.8938  -5.8709  -5.8202  -5.8130  -5.7934  -5.7686
    -5.7618  -5.7614  -5.7443  -5.7248  -5.7238  -5.7226  -5.7151  -5.7129
    -5.6893  -5.6665  -5.6487  -5.6262  -5.6185  -5.6145  -5.6039  -5.5968
    -5.5747  -5.5740  -5.5613  -5.5495  -5.5397  -5.5269  -5.5255  -5.5239
    -5.5180  -5.5127  -5.5127  -5.5070  -5.5019  -5.4955  -5.4944  -5.4492
    -5.4338  -5.4244  -5.4212  -5.4181  -5.4153  -5.4150  -5.3867  -5.3846
    -5.3426  -5.3413  -5.3306  -5.3167  -5.3127  -5.3123  -5.3074  -5.2932
    -5.2835  -5.2322  -5.2104  -5.1604  -5.1375  -5.1208  -5.1162  -5.0808
    -5.0670  -5.0660  -5.0571  -5.0565  -4.9850  -4.9771  -4.9690  -4.9667
    -4.9539  -4.9397  -4.8920  -4.8586  -4.8264  -4.8200  -4.8018  -4.7433
    -4.7368  -4.7345  -4.6857  -4.6728  -0.2034  -0.1127  -0.0898  -0.0605
     0.0048   0.0514   0.0550   0.0588   0.0784   0.0916   0.0992   0.1042
     0.1068   0.1239   0.1353   0.1565   0.1608   0.1642   0.1675   0.1732
     0.1757

     highest occupied, lowest unoccupied level (ev):    -4.6513   -0.2090

!    total energy              =  -10249.33162106 Ry
     total all-electron energy =    -40959.943747 Ry
     estimated scf accuracy    <       0.00000005 Ry

     The total energy is the sum of the following terms:
     one-electron contribution =  -90101.13765531 Ry
     hartree contribution      =   45462.09905114 Ry
     xc contribution           =   -2267.17972483 Ry
     ewald contribution        =   40040.59963594 Ry
     one-center paw contrib.   =   -3383.71292800 Ry

     convergence has been achieved in  11 iterations

     Writing all to output data dir ./hBN_water_Oup_Hdown.save/

     General routines

     Parallel routines

   This run was terminated on:   2: 6: 8  26Oct2022

   JOB DONE.