     Program PWSCF v.7.1 starts on 20Oct2022 at 23: 1:43
        Git branch: HEAD
        Last git commit: 564a7b486665e8dd0223d6e514b84195d1a96c10
        Last git commit date: Tue Jun 14 16:16:48 2022 +0000
        Last git commit subject: Merge branch 'update_version_number' into 'develop

     Waiting for input...
     Reading input from standard input

     Current dimensions of program PWSCF are:
     Max number of different atomic species (ntypx) = 10
     Max number of k-points (npk) =  40000
     Max angular momentum in pseudopotentials (lmaxx) =  4
     file N.pbe-n-kjpaw_psl.1.0.0.UPF: wavefunction(s)  2S renormalized
     file O.pbe-n-kjpaw_psl.1.0.0.UPF: wavefunction(s)  2S 2P renormalized
     file H.pbe-kjpaw_psl.1.0.0.UPF: wavefunction(s)  1S renormalized
     Found identity + (  0.0000 -0.5000  0.0000) symmetry
     This is a supercell, fractional translations are disabled
     Message from routine setup:
     using ibrav=0 with symmetry is DISCOURAGED, use correct ibrav instead

     R & G space division:  proc/nbgrp/npool/nimage =     128
     Subspace diagonalization in iterative solution of the eigenvalue problem:
     a serial algorithm will be used

     Using Slab Decomposition

     bravais-lattice index     =            0
     lattice parameter (alat)  =      18.9316  a.u.
     unit-cell volume          =   17596.4974 (a.u.)^3
     number of atoms/cell      =           44
     number of atomic types    =            4
     number of electrons       =       160.00
     number of Kohn-Sham states=          132
     kinetic-energy cutoff     =      51.4490  Ry
     charge density cutoff     =     205.7961  Ry
     scf convergence threshold =      1.0E-06
     mixing beta               =       0.7000
     number of iterations used =            8  plain     mixing
     Exchange-correlation= SLA  PW   PBX  PBC
                           (   1   4   3   4   0   0   0)

     celldm(1)=  18.931616  celldm(2)=   0.000000  celldm(3)=   0.000000
     celldm(4)=   0.000000  celldm(5)=   0.000000  celldm(6)=   0.000000

     crystal axes: (cart. coord. in units of alat)
               a(1) = (   1.000000   0.000000   0.000000 )
               a(2) = (   0.000000   0.866026   0.000000 )
               a(3) = (   0.000000   0.000000   2.994556 )

     reciprocal axes: (cart. coord. in units 2 pi/alat)
               b(1) = (  1.000000  0.000000  0.000000 )
               b(2) = (  0.000000  1.154700  0.000000 )
               b(3) = (  0.000000  0.000000  0.333939 )

     PseudoPot. # 1 for B  read from file:
     ./B.pbe-n-kjpaw_psl.1.0.0.UPF
     MD5 check sum: 8c825a5969375aca5c2c6ad5945b3059
     Pseudo is Projector augmented-wave + core cor, Zval =  3.0
     Generated using &quot;atomic&quot; code by A. Dal Corso  v.6.3
     Shape of augmentation charge: PSQ
     Using radial grid of 1059 points,  4 beta functions with:
                l(1) =   0
                l(2) =   0
                l(3) =   1
                l(4) =   1
     Q(r) pseudized with 0 coefficients

     PseudoPot. # 2 for N  read from file:
     ./N.pbe-n-kjpaw_psl.1.0.0.UPF
     MD5 check sum: 14c48229446f9f2d411169a3abcbc3fa
     Pseudo is Projector augmented-wave + core cor, Zval =  5.0
     Generated using &quot;atomic&quot; code by A. Dal Corso  v.6.3
     Shape of augmentation charge: PSQ
     Using radial grid of 1085 points,  4 beta functions with:
                l(1) =   0
                l(2) =   0
                l(3) =   1
                l(4) =   1
     Q(r) pseudized with 0 coefficients

     PseudoPot. # 3 for O  read from file:
     ./O.pbe-n-kjpaw_psl.1.0.0.UPF
     MD5 check sum: e99d9cef9b487d1ca56f5b95ecd0fd7a
     Pseudo is Projector augmented-wave + core cor, Zval =  6.0
     Generated using &quot;atomic&quot; code by A. Dal Corso  v.6.3
     Shape of augmentation charge: PSQ
     Using radial grid of 1095 points,  4 beta functions with:
                l(1) =   0
                l(2) =   0
                l(3) =   1
                l(4) =   1
     Q(r) pseudized with 0 coefficients

     PseudoPot. # 4 for H  read from file:
     ./H.pbe-kjpaw_psl.1.0.0.UPF
     MD5 check sum: d81a744832360e4a8af0b0b5b123bc2a
     Pseudo is Projector augmented-wave, Zval =  1.0
     Generated using &quot;atomic&quot; code by A. Dal Corso  v.6.3MaX
     Shape of augmentation charge: PSQ
     Using radial grid of  929 points,  2 beta functions with:
                l(1) =   0
                l(2) =   0
     Q(r) pseudized with 0 coefficients

     atomic species   valence    mass     pseudopotential
        B              3.00    10.81100     B ( 1.00)
        N              5.00    14.00670     N ( 1.00)
        O              6.00    15.99900     O ( 1.00)
        H              1.00     1.00784     H ( 1.00)

      2 Sym. Ops. (no inversion) found

   Cartesian axes

     site n.     atom                  positions (alat units)
         1           B   tau(   1) = (   0.8750000   0.0721694   0.5989112  )
         2           B   tau(   2) = (   0.8750000   0.5051822   0.5989112  )
         3           B   tau(   3) = (   0.3750000   0.0721694   0.5989112  )
         4           B   tau(   4) = (   0.3750000   0.5051822   0.5989112  )
         5           B   tau(   5) = (   0.1250000   0.0721694   0.5989112  )
         6           B   tau(   6) = (   0.1250000   0.5051822   0.5989112  )
         7           B   tau(   7) = (   0.6250000   0.0721694   0.5989112  )
         8           B   tau(   8) = (   0.6250000   0.5051822   0.5989112  )
         9           B   tau(   9) = (   0.0000000   0.7216877   0.5989112  )
        10           B   tau(  10) = (   0.0000000   0.2886758   0.5989112  )
        11           B   tau(  11) = (   0.5000000   0.7216877   0.5989112  )
        12           B   tau(  12) = (   0.5000000   0.2886758   0.5989112  )
        13           B   tau(  13) = (   0.2500000   0.7216877   0.5989112  )
        14           B   tau(  14) = (   0.2500000   0.2886758   0.5989112  )
        15           B   tau(  15) = (   0.7500000   0.7216877   0.5989112  )
        16           B   tau(  16) = (   0.7500000   0.2886758   0.5989112  )
        17           N   tau(  17) = (   0.8750000   0.7938571   0.5989112  )
        18           N   tau(  18) = (   0.8750000   0.3608434   0.5989112  )
        19           N   tau(  19) = (   0.3750000   0.7938571   0.5989112  )
        20           N   tau(  20) = (   0.3750000   0.3608434   0.5989112  )
        21           N   tau(  21) = (   0.1250000   0.7938571   0.5989112  )
        22           N   tau(  22) = (   0.1250000   0.3608434   0.5989112  )
        23           N   tau(  23) = (   0.6250000   0.7938571   0.5989112  )
        24           N   tau(  24) = (   0.6250000   0.3608434   0.5989112  )
        25           N   tau(  25) = (   0.0000000   0.1443370   0.5989112  )
        26           N   tau(  26) = (   0.0000000   0.5773498   0.5989112  )
        27           N   tau(  27) = (   0.5000000   0.1443370   0.5989112  )
        28           N   tau(  28) = (   0.5000000   0.5773498   0.5989112  )
        29           N   tau(  29) = (   0.2500000   0.1443370   0.5989112  )
        30           N   tau(  30) = (   0.2500000   0.5773498   0.5989112  )
        31           N   tau(  31) = (   0.7500000   0.1443370   0.5989112  )
        32           N   tau(  32) = (   0.7500000   0.5773498   0.5989112  )
        33           O   tau(  33) = (   0.0000000   0.0000000   0.9382932  )
        34           O   tau(  34) = (   0.0000000   0.4330128   0.9382932  )
        35           O   tau(  35) = (   0.5000000   0.0000000   0.9382932  )
        36           O   tau(  36) = (   0.5000000   0.4330128   0.9382932  )
        37           H   tau(  37) = (   0.0000000   0.0755573   0.8798125  )
        38           H   tau(  38) = (   0.0000000   0.5085709   0.8798125  )
        39           H   tau(  39) = (   0.5000000   0.0755573   0.8798125  )
        40           H   tau(  40) = (   0.5000000   0.5085709   0.8798125  )
        41           H   tau(  41) = (   0.0000000   0.7904674   0.8798125  )
        42           H   tau(  42) = (   0.0000000   0.3574547   0.8798125  )
        43           H   tau(  43) = (   0.5000000   0.7904674   0.8798125  )
        44           H   tau(  44) = (   0.5000000   0.3574547   0.8798125  )

     number of k points=     4
                       cart. coord. in units 2pi/alat
        k(    1) = (   0.0000000   0.0000000   0.0000000), wk =   0.2222222
        k(    2) = (   0.0000000   0.3849001   0.0000000), wk =   0.4444444
        k(    3) = (   0.3333333   0.0000000   0.0000000), wk =   0.4444444
        k(    4) = (   0.3333333   0.3849001   0.0000000), wk =   0.8888889

     Check: negative core charge=   -0.000008

     Initial potential from superposition of free atoms

     starting charge     159.9953, renormalised to     160.0000

     negative rho (up, down):  1.873E-02 0.000E+00
     Starting wfcs are  152 randomized atomic wfcs
     Checking if some PAW data can be deallocated...

     Self-consistent Calculation

     iteration #  1     ecut=    51.45 Ry     beta= 0.70
     Davidson diagonalization with overlap
     ethr =  1.00E-02,  avg # of iterations = 11.0

     negative rho (up, down):  3.540E-02 0.000E+00

     total energy              =    -810.99356498 Ry
     estimated scf accuracy    <       8.25674602 Ry

[...]

     total energy              =    -813.95677860 Ry
     estimated scf accuracy    <       0.00000333 Ry

     iteration # 11     ecut=    51.45 Ry     beta= 0.70
     Davidson diagonalization with overlap
     ethr =  2.08E-09,  avg # of iterations =  4.5

     negative rho (up, down):  4.536E-02 0.000E+00

     End of self-consistent calculation

          k = 0.0000 0.0000 0.0000 (109767 PWs)   bands (ev):

   -24.1763 -24.1743 -24.1616 -24.1600 -23.2430 -22.3879 -22.3457 -22.0979
   -22.0853 -21.3582 -21.3173 -21.3047 -21.2868 -20.2896 -20.2741 -20.1641
   -20.1547 -20.1525 -19.7147 -19.6755 -14.4671 -14.4654 -14.4638 -13.7970
   -13.7582 -13.1826 -13.1752 -12.1458 -12.1326 -12.0743 -12.0520 -12.0497
   -12.0334 -12.0186 -12.0085 -11.8730 -11.8652 -11.4540 -11.4464 -10.8452
   -10.6714 -10.6620  -9.7868  -9.7732  -9.7575  -9.7439  -9.7420  -9.7364
    -9.7126  -9.7116  -9.7096  -9.7046  -9.6010  -9.3024  -9.2565  -8.5318
    -8.5266  -8.5221  -8.4999  -8.3979  -8.2361  -8.1673  -8.1418  -7.9948
    -7.9379  -7.9087  -7.7577  -6.9038  -6.9032  -6.7033  -6.6910  -6.4892
    -6.4850  -6.4732  -5.9941  -5.9351  -5.8879  -5.8549  -5.7982  -5.7288
    -1.0729  -0.8474  -0.7842  -0.7614  -0.7546  -0.7468  -0.1764   0.0133
     0.1661   0.1799   0.5294   0.7608   0.8153   1.0790   1.1053   1.1208
     1.3628   1.4754   1.6231   1.6346   1.6596   1.6960   1.7682   1.8637
     1.9758   2.0097   2.0277   2.0585   2.2535   2.4130   2.4460   2.4614
     2.4719   2.5455   2.5715   2.7151   2.9598   2.9658   3.0093   3.0120
     3.1660   3.3940   3.4017   3.4214   3.4214   3.4265   3.4446   3.5464
     3.5538   3.6199   3.6851   3.7237

[...]

          k = 0.3333 0.3849 0.0000 (109663 PWs)   bands (ev):

   -24.1724 -24.1709 -24.1651 -24.1637 -23.0105 -22.7172 -22.6205 -22.3364
   -21.6214 -21.3018 -21.2189 -20.9787 -20.9160 -20.6805 -20.4523 -20.2516
   -20.2502 -20.0388 -19.8243 -19.7702 -14.2486 -13.9468 -13.8108 -13.6998
   -13.6396 -13.6375 -13.5608 -12.7918 -12.4588 -12.4377 -12.4307 -12.0648
   -12.0057 -12.0035 -11.9188 -11.9127 -11.5959 -11.5942 -10.8849 -10.8848
   -10.5300 -10.5255 -10.3626 -10.1371 -10.0661  -9.9999  -9.9554  -9.8740
    -9.6185  -9.5913  -9.5273  -9.2212  -9.1556  -9.0766  -8.8787  -8.6567
    -8.4705  -8.2417  -8.1370  -8.0635  -8.0217  -7.9258  -7.9193  -7.8701
    -7.8293  -7.7943  -7.6483  -7.5794  -7.3583  -7.2602  -6.9304  -6.6419
    -6.6395  -6.3146  -6.0213  -5.9849  -5.9273  -5.8833  -5.8667  -5.8620
    -0.7390  -0.6894  -0.6716  -0.6105  -0.2132  -0.0959  -0.0511  -0.0310
     0.0495   0.2237   0.3313   0.4943   0.6392   0.8783   0.9078   1.0130
     1.1743   1.2996   1.3827   1.4320   1.4661   1.5194   1.5753   1.8626
     1.8674   1.9700   2.0194   2.0382   2.1235   2.3591   2.3795   2.4150
     2.5131   2.5426   2.6122   2.6277   2.8638   3.0053   3.0160   3.0275
     3.1022   3.1043   3.1142   3.2496   3.4389   3.5085   3.5313   3.5895
     3.5915   3.7318   3.7675   3.7987

     highest occupied, lowest unoccupied level (ev):    -5.5631   -1.0729

!    total energy              =    -813.95677920 Ry
     total all-electron energy =     -3161.954633 Ry
     estimated scf accuracy    <       0.00000024 Ry

     The total energy is the sum of the following terms:
     one-electron contribution =   -7416.59828171 Ry
     hartree contribution      =    3737.69502461 Ry
     xc contribution           =    -176.67791521 Ry
     ewald contribution        =    3290.85798179 Ry
     one-center paw contrib.   =    -249.23358869 Ry

     convergence has been achieved in  11 iterations

     Writing all to output data dir ./hBN_water_Oup_Hdown.save/

     General routines

     Parallel routines

   This run was terminated on:  23: 2:41  20Oct2022

   JOB DONE.