     Program PWSCF v.7.1 starts on 20Oct2022 at 23: 2:56
        Git branch: HEAD
        Last git commit: 564a7b486665e8dd0223d6e514b84195d1a96c10
        Last git commit date: Tue Jun 14 16:16:48 2022 +0000
        Last git commit subject: Merge branch 'update_version_number' into 'develop

     Waiting for input...
     Reading input from standard input

     Current dimensions of program PWSCF are:
     Max number of different atomic species (ntypx) = 10
     Max number of k-points (npk) =  40000
     Max angular momentum in pseudopotentials (lmaxx) =  4
     file N.pbe-n-kjpaw_psl.1.0.0.UPF: wavefunction(s)  2S renormalized
     file O.pbe-n-kjpaw_psl.1.0.0.UPF: wavefunction(s)  2S 2P renormalized
     file H.pbe-kjpaw_psl.1.0.0.UPF: wavefunction(s)  1S renormalized
     Found identity + (  0.0000  0.3333  0.0000) symmetry
     This is a supercell, fractional translations are disabled
     Message from routine setup:
     using ibrav=0 with symmetry is DISCOURAGED, use correct ibrav instead

     R & G space division:  proc/nbgrp/npool/nimage =     128
     Subspace diagonalization in iterative solution of the eigenvalue problem:
     one sub-group per band group will be used

     Using Slab Decomposition

     bravais-lattice index     =            0
     lattice parameter (alat)  =      28.3974  a.u.
     unit-cell volume          =   39592.1192 (a.u.)^3
     number of atoms/cell      =           99
     number of atomic types    =            4
     number of electrons       =       360.00
     number of Kohn-Sham states=          297
     kinetic-energy cutoff     =      51.4490  Ry
     charge density cutoff     =     205.7961  Ry
     scf convergence threshold =      1.0E-06
     mixing beta               =       0.7000
     number of iterations used =            8  plain     mixing
     Exchange-correlation= SLA  PW   PBX  PBC
                           (   1   4   3   4   0   0   0)

     celldm(1)=  28.397425  celldm(2)=   0.000000  celldm(3)=   0.000000
     celldm(4)=   0.000000  celldm(5)=   0.000000  celldm(6)=   0.000000

     crystal axes: (cart. coord. in units of alat)
               a(1) = (   1.000000   0.000000   0.000000 )
               a(2) = (   0.000000   0.866026   0.000000 )
               a(3) = (   0.000000   0.000000   1.996371 )

     reciprocal axes: (cart. coord. in units 2 pi/alat)
               b(1) = (  1.000000  0.000000  0.000000 )
               b(2) = (  0.000000  1.154700  0.000000 )
               b(3) = (  0.000000  0.000000  0.500909 )

     PseudoPot. # 1 for B  read from file:
     ./B.pbe-n-kjpaw_psl.1.0.0.UPF
     MD5 check sum: 8c825a5969375aca5c2c6ad5945b3059
     Pseudo is Projector augmented-wave + core cor, Zval =  3.0
     Generated using &quot;atomic&quot; code by A. Dal Corso  v.6.3
     Shape of augmentation charge: PSQ
     Using radial grid of 1059 points,  4 beta functions with:
                l(1) =   0
                l(2) =   0
                l(3) =   1
                l(4) =   1
     Q(r) pseudized with 0 coefficients

     PseudoPot. # 2 for N  read from file:
     ./N.pbe-n-kjpaw_psl.1.0.0.UPF
     MD5 check sum: 14c48229446f9f2d411169a3abcbc3fa
     Pseudo is Projector augmented-wave + core cor, Zval =  5.0
     Generated using &quot;atomic&quot; code by A. Dal Corso  v.6.3
     Shape of augmentation charge: PSQ
     Using radial grid of 1085 points,  4 beta functions with:
                l(1) =   0
                l(2) =   0
                l(3) =   1
                l(4) =   1
     Q(r) pseudized with 0 coefficients

     PseudoPot. # 3 for O  read from file:
     ./O.pbe-n-kjpaw_psl.1.0.0.UPF
     MD5 check sum: e99d9cef9b487d1ca56f5b95ecd0fd7a
     Pseudo is Projector augmented-wave + core cor, Zval =  6.0
     Generated using &quot;atomic&quot; code by A. Dal Corso  v.6.3
     Shape of augmentation charge: PSQ
     Using radial grid of 1095 points,  4 beta functions with:
                l(1) =   0
                l(2) =   0
                l(3) =   1
                l(4) =   1
     Q(r) pseudized with 0 coefficients

     PseudoPot. # 4 for H  read from file:
     ./H.pbe-kjpaw_psl.1.0.0.UPF
     MD5 check sum: d81a744832360e4a8af0b0b5b123bc2a
     Pseudo is Projector augmented-wave, Zval =  1.0
     Generated using &quot;atomic&quot; code by A. Dal Corso  v.6.3MaX
     Shape of augmentation charge: PSQ
     Using radial grid of  929 points,  2 beta functions with:
                l(1) =   0
                l(2) =   0
     Q(r) pseudized with 0 coefficients

     atomic species   valence    mass     pseudopotential
        B              3.00    10.81100     B ( 1.00)
        N              5.00    14.00670     N ( 1.00)
        O              6.00    15.99900     O ( 1.00)
        H              1.00     1.00784     H ( 1.00)

      2 Sym. Ops. (no inversion) found

   Cartesian axes

     site n.     atom                  positions (alat units)
         1           B   tau(   1) = (   0.9166670   0.0481129   0.3992741  )
         2           B   tau(   2) = (   0.9166670   0.3367878   0.3992741  )
         3           B   tau(   3) = (   0.9166670   0.6254627   0.3992741  )
         4           B   tau(   4) = (   0.2500000   0.0481129   0.3992741  )
         5           B   tau(   5) = (   0.2500000   0.3367878   0.3992741  )
         6           B   tau(   6) = (   0.2500000   0.6254627   0.3992741  )
         7           B   tau(   7) = (   0.5833330   0.0481129   0.3992741  )
         8           B   tau(   8) = (   0.5833330   0.3367878   0.3992741  )
         9           B   tau(   9) = (   0.5833330   0.6254627   0.3992741  )
        10           B   tau(  10) = (   0.0833330   0.0481129   0.3992741  )
        11           B   tau(  11) = (   0.0833330   0.3367878   0.3992741  )
        12           B   tau(  12) = (   0.0833330   0.6254627   0.3992741  )
        13           B   tau(  13) = (   0.4166670   0.0481129   0.3992741  )
        14           B   tau(  14) = (   0.4166670   0.3367878   0.3992741  )
        15           B   tau(  15) = (   0.4166670   0.6254627   0.3992741  )
        16           B   tau(  16) = (   0.7500000   0.0481129   0.3992741  )
        17           B   tau(  17) = (   0.7500000   0.3367878   0.3992741  )
        18           B   tau(  18) = (   0.7500000   0.6254627   0.3992741  )
        19           B   tau(  19) = (   0.0000000   0.7698006   0.3992741  )
        20           B   tau(  20) = (   0.0000000   0.1924499   0.3992741  )
        21           B   tau(  21) = (   0.0000000   0.4811257   0.3992741  )
        22           B   tau(  22) = (   0.3333330   0.7698006   0.3992741  )
        23           B   tau(  23) = (   0.3333330   0.1924499   0.3992741  )
        24           B   tau(  24) = (   0.3333330   0.4811257   0.3992741  )
        25           B   tau(  25) = (   0.6666670   0.7698006   0.3992741  )
        26           B   tau(  26) = (   0.6666670   0.1924499   0.3992741  )
        27           B   tau(  27) = (   0.6666670   0.4811257   0.3992741  )
        28           B   tau(  28) = (   0.1666670   0.7698006   0.3992741  )
        29           B   tau(  29) = (   0.1666670   0.1924499   0.3992741  )
        30           B   tau(  30) = (   0.1666670   0.4811257   0.3992741  )
        31           B   tau(  31) = (   0.5000000   0.7698006   0.3992741  )
        32           B   tau(  32) = (   0.5000000   0.1924499   0.3992741  )
        33           B   tau(  33) = (   0.5000000   0.4811257   0.3992741  )
        34           B   tau(  34) = (   0.8333330   0.7698006   0.3992741  )
        35           B   tau(  35) = (   0.8333330   0.1924499   0.3992741  )
        36           B   tau(  36) = (   0.8333330   0.4811257   0.3992741  )
        37           N   tau(  37) = (   0.9166670   0.8179126   0.3992741  )
        38           N   tau(  38) = (   0.9166670   0.2405628   0.3992741  )
        39           N   tau(  39) = (   0.9166670   0.5292377   0.3992741  )
        40           N   tau(  40) = (   0.2500000   0.8179126   0.3992741  )
        41           N   tau(  41) = (   0.2500000   0.2405628   0.3992741  )
        42           N   tau(  42) = (   0.2500000   0.5292377   0.3992741  )
        43           N   tau(  43) = (   0.5833330   0.8179126   0.3992741  )
        44           N   tau(  44) = (   0.5833330   0.2405628   0.3992741  )
        45           N   tau(  45) = (   0.5833330   0.5292377   0.3992741  )
        46           N   tau(  46) = (   0.0833330   0.8179126   0.3992741  )
        47           N   tau(  47) = (   0.0833330   0.2405628   0.3992741  )
        48           N   tau(  48) = (   0.0833330   0.5292377   0.3992741  )
        49           N   tau(  49) = (   0.4166670   0.8179126   0.3992741  )
        50           N   tau(  50) = (   0.4166670   0.2405628   0.3992741  )
        51           N   tau(  51) = (   0.4166670   0.5292377   0.3992741  )
        52           N   tau(  52) = (   0.7500000   0.8179126   0.3992741  )
        53           N   tau(  53) = (   0.7500000   0.2405628   0.3992741  )
        54           N   tau(  54) = (   0.7500000   0.5292377   0.3992741  )
        55           N   tau(  55) = (   0.0000000   0.0962250   0.3992741  )
        56           N   tau(  56) = (   0.0000000   0.3848999   0.3992741  )
        57           N   tau(  57) = (   0.0000000   0.6735756   0.3992741  )
        58           N   tau(  58) = (   0.3333330   0.0962250   0.3992741  )
        59           N   tau(  59) = (   0.3333330   0.3848999   0.3992741  )
        60           N   tau(  60) = (   0.3333330   0.6735756   0.3992741  )
[...]
        85           H   tau(  85) = (   0.3333330   0.0503715   0.5865417  )
        86           H   tau(  86) = (   0.3333330   0.3390473   0.5865417  )
        87           H   tau(  87) = (   0.3333330   0.6277222   0.5865417  )
        88           H   tau(  88) = (   0.6666670   0.0503715   0.5865417  )
        89           H   tau(  89) = (   0.6666670   0.3390473   0.5865417  )
        90           H   tau(  90) = (   0.6666670   0.6277222   0.5865417  )
        91           H   tau(  91) = (   0.0000000   0.8156541   0.5865417  )
        92           H   tau(  92) = (   0.0000000   0.2383034   0.5865417  )
        93           H   tau(  93) = (   0.0000000   0.5269783   0.5865417  )
        94           H   tau(  94) = (   0.3333330   0.8156541   0.5865417  )
        95           H   tau(  95) = (   0.3333330   0.2383034   0.5865417  )
        96           H   tau(  96) = (   0.3333330   0.5269783   0.5865417  )
        97           H   tau(  97) = (   0.6666670   0.8156541   0.5865417  )
        98           H   tau(  98) = (   0.6666670   0.2383034   0.5865417  )
        99           H   tau(  99) = (   0.6666670   0.5269783   0.5865417  )

     number of k points=     4
                       cart. coord. in units 2pi/alat
        k(    1) = (   0.0000000   0.0000000   0.0000000), wk =   0.2222222
        k(    2) = (   0.0000000   0.3849001   0.0000000), wk =   0.4444444
        k(    3) = (   0.3333333   0.0000000   0.0000000), wk =   0.4444444
        k(    4) = (   0.3333333   0.3849001   0.0000000), wk =   0.8888889

     Check: negative core charge=   -0.000008

     Initial potential from superposition of free atoms

     starting charge     359.9894, renormalised to     360.0000

     negative rho (up, down):  4.219E-02 0.000E+00
     Starting wfcs are  342 randomized atomic wfcs
     Checking if some PAW data can be deallocated...

     Self-consistent Calculation

     iteration #  1     ecut=    51.45 Ry     beta= 0.70
     Davidson diagonalization with overlap
     ethr =  1.00E-02,  avg # of iterations = 10.2

     negative rho (up, down):  7.970E-02 0.000E+00

     total energy              =   -1824.73727212 Ry
     estimated scf accuracy    <      18.57774861 Ry

[...]

     iteration #  4     ecut=    51.45 Ry     beta= 0.70
     Davidson diagonalization with overlap
     c_bands:  4 eigenvalues not converged
     c_bands:  4 eigenvalues not converged
     c_bands:  2 eigenvalues not converged
     ethr =  5.24E-05,  avg # of iterations = 19.0

[...]

     iteration #  7     ecut=    51.45 Ry     beta= 0.70
     Davidson diagonalization with overlap
     c_bands:  3 eigenvalues not converged
     c_bands:  2 eigenvalues not converged
     ethr =  2.33E-07,  avg # of iterations = 16.0

[...]

     total energy              =   -1831.40317135 Ry
     estimated scf accuracy    <       0.00000396 Ry

     iteration # 12     ecut=    51.45 Ry     beta= 0.70
     Davidson diagonalization with overlap
     ethr =  1.10E-09,  avg # of iterations =  5.0

     negative rho (up, down):  1.022E-01 0.000E+00

     End of self-consistent calculation

          k = 0.0000 0.0000 0.0000 (246841 PWs)   bands (ev):

   -24.1756 -24.1745 -24.1742 -24.1646 -24.1644 -24.1638 -24.1637 -24.1636
   -24.1634 -23.2430 -22.8468 -22.8468 -22.7172 -22.7171 -22.3364 -22.3364
   -22.3364 -22.3364 -21.7322 -21.7321 -21.3023 -21.3022 -21.3018 -21.3018
   -21.3018 -21.3017 -20.9788 -20.9788 -20.9787 -20.9787 -20.2896 -20.2739
   -20.2502 -20.2502 -20.2501 -20.2501 -20.1955 -20.1954 -20.1840 -20.1839
   -20.1549 -19.9164 -19.9164 -19.5758 -19.5758 -14.4653 -14.2357 -14.2356
   -14.2322 -14.2321 -14.1479 -14.1478 -13.6397 -13.6397 -13.6397 -13.6396
   -13.4884 -13.4884 -13.1831 -13.1755 -12.7398 -12.7398 -12.4588 -12.4588
   -12.4588 -12.4588 -12.4500 -12.4499 -12.4376 -12.4376 -12.4376 -12.4376
   -12.0064 -12.0063 -12.0034 -12.0033 -12.0031 -12.0030 -11.8726 -11.8702
   -11.8700 -11.4539 -11.4461 -11.0950 -11.0950 -11.0518 -11.0518 -10.8849
   -10.8848 -10.8848 -10.8848 -10.8453 -10.3628 -10.3628 -10.3627 -10.3627
   -10.3142 -10.3142 -10.1293 -10.1292 -10.0676 -10.0676 -10.0633 -10.0632
    -9.8740  -9.8740  -9.8739  -9.8739  -9.7116  -9.6185  -9.6185  -9.6185
    -9.6184  -9.4924  -9.4924  -9.1561  -9.1560  -9.1556  -9.1556  -9.1556
    -9.1555  -8.8776  -8.8775  -8.8090  -8.8089  -8.4706  -8.4705  -8.4705
    -8.4705  -8.3854  -8.3854  -8.2417  -8.2416  -8.2416  -8.2415  -8.2247
    -8.2246  -7.9941  -7.9285  -7.9282  -7.9255  -7.9254  -7.9253  -7.9253
    -7.8857  -7.8856  -7.7947  -7.7946  -7.6758  -7.6758  -7.6483  -7.6482
    -7.6482  -7.6481  -6.9037  -6.9031  -6.7032  -6.6912  -6.6420  -6.6420
    -6.6419  -6.6419  -6.5459  -6.5459  -6.5383  -6.5383  -6.4732  -6.1150
    -6.1149  -5.9723  -5.9719  -5.9269  -5.9267  -5.9265  -5.9264  -5.8873
    -5.8627  -5.8625  -5.5630  -5.5630  -1.0724  -0.9090  -0.9090  -0.7547
    -0.7280  -0.7279  -0.5774  -0.5773  -0.5428  -0.5427  -0.4041  -0.4041
    -0.1756  -0.0961  -0.0960  -0.0960  -0.0960  -0.0847  -0.0847   0.1660
     0.1798   0.4107   0.4107   0.4947   0.4948   0.4948   0.4948   0.5290
     0.7303   0.7303   1.0784   1.1624   1.1624   1.1746   1.1746   1.1746
     1.1746   1.2999   1.2999   1.2999   1.2999   1.4008   1.4008   1.4750
     1.4836   1.4837   1.5194   1.5195   1.5195   1.5196   1.6757   1.6757
     1.7999   1.7999   1.9608   1.9608   2.0091   2.0377   2.0377   2.0377
     2.0377   2.0628   2.0628   2.1484   2.1484   2.2531   2.3388   2.3388
     2.3690   2.3690   2.4154   2.4154   2.4154   2.4154   2.6116   2.6116
     2.6116   2.6116   2.6646   2.6646   2.8671   2.8671   2.9025   2.9025
     2.9799   2.9799   3.0051   3.0051   3.0052   3.0052   3.0277   3.0277
     3.0277   3.0277   3.0903   3.0903   3.1656   3.4213   3.4384   3.4385
     3.4385   3.4385   3.4720   3.4721   3.5918   3.5918   3.5918   3.5918
     3.6023   3.6024   3.7316   3.7316   3.7317   3.7319   3.7635   3.7636
     3.8542

[...]

          k = 0.3333 0.3849 0.0000 (246711 PWs)   bands (ev):

   -24.1737 -24.1731 -24.1724 -24.1693 -24.1688 -24.1682 -24.1612 -24.1608
   -24.1603 -23.1393 -23.0069 -22.9630 -22.8323 -22.4907 -22.3240 -22.2815
   -22.1577 -22.1158 -21.9569 -21.8014 -21.6848 -21.6836 -21.3547 -21.2386
   -21.2069 -21.0820 -20.9394 -20.7318 -20.7198 -20.6307 -20.6289 -20.6260
   -20.3497 -20.3311 -20.3008 -20.2784 -20.2111 -20.1729 -20.0705 -19.9553
   -19.9115 -19.9079 -19.8504 -19.7527 -19.7028 -14.3607 -14.1927 -14.1600
   -14.0878 -14.0644 -14.0229 -13.9782 -13.7689 -13.7277 -13.7266 -13.6736
   -13.5761 -13.4420 -13.3884 -13.3757 -13.3754 -13.2467 -12.8863 -12.6938
   -12.6658 -12.2475 -12.1768 -12.1607 -12.1299 -12.0460 -12.0443 -12.0427
   -11.9857 -11.9483 -11.9475 -11.9467 -11.8950 -11.8921 -11.8894 -11.7178
   -11.6860 -11.6859 -11.4198 -11.3689 -11.3434 -11.3430 -11.2877 -11.0377
   -10.9770 -10.7044 -10.5761 -10.5272 -10.4640 -10.4401 -10.3111 -10.2889
   -10.2573 -10.1713 -10.1109 -10.1106 -10.1085 -10.0954 -10.0550  -9.9997
    -9.9614  -9.8736  -9.8380  -9.8263  -9.6471  -9.6357  -9.6172  -9.6097
    -9.5628  -9.5388  -9.5136  -9.4322  -9.3728  -9.3391  -9.3385  -9.3187
    -9.1012  -8.9192  -8.8846  -8.8003  -8.7434  -8.7355  -8.7270  -8.6843
    -8.4513  -8.4372  -8.2954  -8.2858  -8.1811  -8.1639  -8.1453  -8.0608
    -8.0248  -8.0011  -7.9629  -7.9326  -7.9239  -7.9141  -7.9088  -7.8781
    -7.8386  -7.8325  -7.7640  -7.6794  -7.6011  -7.4532  -7.3454  -7.3395
    -7.3370  -7.3217  -7.1903  -7.1890  -7.1851  -7.1118  -6.7830  -6.7509
    -6.7002  -6.6852  -6.5693  -6.5126  -6.3747  -6.1969  -6.1378  -6.1207
    -6.0475  -5.9887  -5.9582  -5.9569  -5.9338  -5.8921  -5.8870  -5.8805
    -5.8770  -5.8666  -5.8521  -5.7556  -0.8815  -0.8057  -0.7264  -0.6733
    -0.6721  -0.6644  -0.6402  -0.5194  -0.5023  -0.4933  -0.4225  -0.3981
    -0.3868  -0.3248  -0.2379  -0.1803   0.0078   0.0529   0.1223   0.1915
     0.2058   0.2713   0.3855   0.3919   0.4314   0.4719   0.5297   0.6319
     0.6943   0.7817   0.8143   0.8368   0.9134   0.9970   1.0451   1.0937
     1.1749   1.2334   1.2509   1.2556   1.3305   1.3685   1.4612   1.5040
     1.5042   1.5464   1.5548   1.6172   1.6440   1.6474   1.7076   1.7638
     1.7661   1.8349   1.8681   1.9032   1.9349   1.9419   1.9913   1.9953
     2.0449   2.1142   2.1552   2.1620   2.1752   2.3485   2.3518   2.3713
     2.3749   2.4180   2.4203   2.4547   2.5311   2.6263   2.6295   2.6356
     2.6409   2.6545   2.6990   2.7019   2.7487   2.8386   2.8748   2.9078
     2.9174   2.9717   3.0354   3.0414   3.0428   3.1024   3.1476   3.2063
     3.2277   3.2752   3.2997   3.3154   3.3976   3.4067   3.4575   3.4601
     3.4873   3.4874   3.5031   3.5053   3.5170   3.5532   3.5733   3.6081
     3.6113   3.6233   3.6260   3.6668   3.6693   3.6904   3.7278   3.7440
     3.7449

     highest occupied, lowest unoccupied level (ev):    -5.5630   -1.0724

!    total energy              =   -1831.40317292 Ry
     total all-electron energy =     -7114.398344 Ry
     estimated scf accuracy    <       0.00000033 Ry

     The total energy is the sum of the following terms:
     one-electron contribution =  -16687.34057564 Ry
     hartree contribution      =    8409.80520491 Ry
     xc contribution           =    -397.52302528 Ry
     ewald contribution        =    7404.43067043 Ry
     one-center paw contrib.   =    -560.77544734 Ry

     convergence has been achieved in  12 iterations

     Writing all to output data dir ./hBN_water_Oup_Hdown.save/

     General routines

     Parallel routines

   This run was terminated on:  23: 8:57  20Oct2022

   JOB DONE.