     Program PWSCF v.7.1 starts on 20Oct2022 at 23:30:47
        Git branch: HEAD
        Last git commit: 564a7b486665e8dd0223d6e514b84195d1a96c10
        Last git commit date: Tue Jun 14 16:16:48 2022 +0000
        Last git commit subject: Merge branch 'update_version_number' into 'develop

     Waiting for input...
     Reading input from standard input

     Current dimensions of program PWSCF are:
     Max number of different atomic species (ntypx) = 10
     Max number of k-points (npk) =  40000
     Max angular momentum in pseudopotentials (lmaxx) =  4
     file N.pbe-n-kjpaw_psl.1.0.0.UPF: wavefunction(s)  2S renormalized
     file O.pbe-n-kjpaw_psl.1.0.0.UPF: wavefunction(s)  2S 2P renormalized
     file H.pbe-kjpaw_psl.1.0.0.UPF: wavefunction(s)  1S renormalized
     Found identity + (  0.0000  0.2000  0.0000) symmetry
     This is a supercell, fractional translations are disabled
     Message from routine setup:
     using ibrav=0 with symmetry is DISCOURAGED, use correct ibrav instead

     R & G space division:  proc/nbgrp/npool/nimage =     128
     Subspace diagonalization in iterative solution of the eigenvalue problem:
     one sub-group per band group will be used

     Using Slab Decomposition

     bravais-lattice index     =            0
     lattice parameter (alat)  =      47.3290  a.u.
     unit-cell volume          =  109978.1088 (a.u.)^3
     number of atoms/cell      =          275
     number of atomic types    =            4
     number of electrons       =      1000.00
     number of Kohn-Sham states=          825
     kinetic-energy cutoff     =      51.4490  Ry
     charge density cutoff     =     205.7961  Ry
     scf convergence threshold =      1.0E-06
     mixing beta               =       0.7000
     number of iterations used =            8  plain     mixing
     Exchange-correlation= SLA  PW   PBX  PBC
                           (   1   4   3   4   0   0   0)

     celldm(1)=  47.329041  celldm(2)=   0.000000  celldm(3)=   0.000000
     celldm(4)=   0.000000  celldm(5)=   0.000000  celldm(6)=   0.000000

     crystal axes: (cart. coord. in units of alat)
               a(1) = (   1.000000   0.000000   0.000000 )
               a(2) = (   0.000000   0.866026   0.000000 )
               a(3) = (   0.000000   0.000000   1.197822 )

     reciprocal axes: (cart. coord. in units 2 pi/alat)
               b(1) = (  1.000000  0.000000  0.000000 )
               b(2) = (  0.000000  1.154700  0.000000 )
               b(3) = (  0.000000  0.000000  0.834848 )

     PseudoPot. # 1 for B  read from file:
     ./B.pbe-n-kjpaw_psl.1.0.0.UPF
     MD5 check sum: 8c825a5969375aca5c2c6ad5945b3059
     Pseudo is Projector augmented-wave + core cor, Zval =  3.0
     Generated using &quot;atomic&quot; code by A. Dal Corso  v.6.3
     Shape of augmentation charge: PSQ
     Using radial grid of 1059 points,  4 beta functions with:
                l(1) =   0
                l(2) =   0
                l(3) =   1
                l(4) =   1
     Q(r) pseudized with 0 coefficients

     PseudoPot. # 2 for N  read from file:
     ./N.pbe-n-kjpaw_psl.1.0.0.UPF
     MD5 check sum: 14c48229446f9f2d411169a3abcbc3fa
     Pseudo is Projector augmented-wave + core cor, Zval =  5.0
     Generated using &quot;atomic&quot; code by A. Dal Corso  v.6.3
     Shape of augmentation charge: PSQ
     Using radial grid of 1085 points,  4 beta functions with:
                l(1) =   0
                l(2) =   0
                l(3) =   1
                l(4) =   1
     Q(r) pseudized with 0 coefficients

     PseudoPot. # 3 for O  read from file:
     ./O.pbe-n-kjpaw_psl.1.0.0.UPF
     MD5 check sum: e99d9cef9b487d1ca56f5b95ecd0fd7a
     Pseudo is Projector augmented-wave + core cor, Zval =  6.0
     Generated using &quot;atomic&quot; code by A. Dal Corso  v.6.3
     Shape of augmentation charge: PSQ
     Using radial grid of 1095 points,  4 beta functions with:
                l(1) =   0
                l(2) =   0
                l(3) =   1
                l(4) =   1
     Q(r) pseudized with 0 coefficients

     PseudoPot. # 4 for H  read from file:
     ./H.pbe-kjpaw_psl.1.0.0.UPF
     MD5 check sum: d81a744832360e4a8af0b0b5b123bc2a
     Pseudo is Projector augmented-wave, Zval =  1.0
     Generated using &quot;atomic&quot; code by A. Dal Corso  v.6.3MaX
     Shape of augmentation charge: PSQ
     Using radial grid of  929 points,  2 beta functions with:
                l(1) =   0
                l(2) =   0
     Q(r) pseudized with 0 coefficients

     atomic species   valence    mass     pseudopotential
        B              3.00    10.81100     B ( 1.00)
        N              5.00    14.00670     N ( 1.00)
        O              6.00    15.99900     O ( 1.00)
        H              1.00     1.00784     H ( 1.00)

      2 Sym. Ops. (no inversion) found

   Cartesian axes

     site n.     atom                  positions (alat units)
         1           B   tau(   1) = (   0.9500000   0.0288672   0.2395645  )
         2           B   tau(   2) = (   0.9500000   0.2020723   0.2395645  )
         3           B   tau(   3) = (   0.9500000   0.3752775   0.2395645  )
         4           B   tau(   4) = (   0.9500000   0.5484826   0.2395645  )
         5           B   tau(   5) = (   0.9500000   0.7216877   0.2395645  )
         6           B   tau(   6) = (   0.1500000   0.0288672   0.2395645  )
         7           B   tau(   7) = (   0.1500000   0.2020723   0.2395645  )
         8           B   tau(   8) = (   0.1500000   0.3752775   0.2395645  )
         9           B   tau(   9) = (   0.1500000   0.5484826   0.2395645  )
        10           B   tau(  10) = (   0.1500000   0.7216877   0.2395645  )
        11           B   tau(  11) = (   0.3500000   0.0288672   0.2395645  )
        12           B   tau(  12) = (   0.3500000   0.2020723   0.2395645  )
        13           B   tau(  13) = (   0.3500000   0.3752775   0.2395645  )
        14           B   tau(  14) = (   0.3500000   0.5484826   0.2395645  )
        15           B   tau(  15) = (   0.3500000   0.7216877   0.2395645  )
        16           B   tau(  16) = (   0.5500000   0.0288672   0.2395645  )
        17           B   tau(  17) = (   0.5500000   0.2020723   0.2395645  )
        18           B   tau(  18) = (   0.5500000   0.3752775   0.2395645  )
        19           B   tau(  19) = (   0.5500000   0.5484826   0.2395645  )
        20           B   tau(  20) = (   0.5500000   0.7216877   0.2395645  )
        21           B   tau(  21) = (   0.7500000   0.0288672   0.2395645  )
        22           B   tau(  22) = (   0.7500000   0.2020723   0.2395645  )
        23           B   tau(  23) = (   0.7500000   0.3752775   0.2395645  )
        24           B   tau(  24) = (   0.7500000   0.5484826   0.2395645  )
        25           B   tau(  25) = (   0.7500000   0.7216877   0.2395645  )
        26           B   tau(  26) = (   0.0500000   0.0288672   0.2395645  )
        27           B   tau(  27) = (   0.0500000   0.2020723   0.2395645  )
        28           B   tau(  28) = (   0.0500000   0.3752775   0.2395645  )
        29           B   tau(  29) = (   0.0500000   0.5484826   0.2395645  )
        30           B   tau(  30) = (   0.0500000   0.7216877   0.2395645  )
        31           B   tau(  31) = (   0.2500000   0.0288672   0.2395645  )
        32           B   tau(  32) = (   0.2500000   0.2020723   0.2395645  )
        33           B   tau(  33) = (   0.2500000   0.3752775   0.2395645  )
        34           B   tau(  34) = (   0.2500000   0.5484826   0.2395645  )
        35           B   tau(  35) = (   0.2500000   0.7216877   0.2395645  )
        36           B   tau(  36) = (   0.4500000   0.0288672   0.2395645  )
        37           B   tau(  37) = (   0.4500000   0.2020723   0.2395645  )
        38           B   tau(  38) = (   0.4500000   0.3752775   0.2395645  )
        39           B   tau(  39) = (   0.4500000   0.5484826   0.2395645  )
        40           B   tau(  40) = (   0.4500000   0.7216877   0.2395645  )
        41           B   tau(  41) = (   0.6500000   0.0288672   0.2395645  )
        42           B   tau(  42) = (   0.6500000   0.2020723   0.2395645  )
        43           B   tau(  43) = (   0.6500000   0.3752775   0.2395645  )
        44           B   tau(  44) = (   0.6500000   0.5484826   0.2395645  )
        45           B   tau(  45) = (   0.6500000   0.7216877   0.2395645  )
        46           B   tau(  46) = (   0.8500000   0.0288672   0.2395645  )
        47           B   tau(  47) = (   0.8500000   0.2020723   0.2395645  )
        48           B   tau(  48) = (   0.8500000   0.3752775   0.2395645  )
        49           B   tau(  49) = (   0.8500000   0.5484826   0.2395645  )
        50           B   tau(  50) = (   0.8500000   0.7216877   0.2395645  )
        51           B   tau(  51) = (   0.0000000   0.8082902   0.2395645  )
        52           B   tau(  52) = (   0.0000000   0.1154698   0.2395645  )
        53           B   tau(  53) = (   0.0000000   0.2886749   0.2395645  )
        54           B   tau(  54) = (   0.0000000   0.4618800   0.2395645  )
        55           B   tau(  55) = (   0.0000000   0.6350851   0.2395645  )
        56           B   tau(  56) = (   0.2000000   0.8082902   0.2395645  )
        57           B   tau(  57) = (   0.2000000   0.1154698   0.2395645  )
        58           B   tau(  58) = (   0.2000000   0.2886749   0.2395645  )
        59           B   tau(  59) = (   0.2000000   0.4618800   0.2395645  )
        60           B   tau(  60) = (   0.2000000   0.6350851   0.2395645  )
[...]
       261           H   tau( 261) = (   0.4000000   0.8358021   0.3519250  )
       262           H   tau( 262) = (   0.4000000   0.1429817   0.3519250  )
       263           H   tau( 263) = (   0.4000000   0.3161868   0.3519250  )
       264           H   tau( 264) = (   0.4000000   0.4893919   0.3519250  )
       265           H   tau( 265) = (   0.4000000   0.6625970   0.3519250  )
       266           H   tau( 266) = (   0.6000000   0.8358021   0.3519250  )
       267           H   tau( 267) = (   0.6000000   0.1429817   0.3519250  )
       268           H   tau( 268) = (   0.6000000   0.3161868   0.3519250  )
       269           H   tau( 269) = (   0.6000000   0.4893919   0.3519250  )
       270           H   tau( 270) = (   0.6000000   0.6625970   0.3519250  )
       271           H   tau( 271) = (   0.8000000   0.8358021   0.3519250  )
       272           H   tau( 272) = (   0.8000000   0.1429817   0.3519250  )
       273           H   tau( 273) = (   0.8000000   0.3161868   0.3519250  )
       274           H   tau( 274) = (   0.8000000   0.4893919   0.3519250  )
       275           H   tau( 275) = (   0.8000000   0.6625970   0.3519250  )

     number of k points=     4
                       cart. coord. in units 2pi/alat
        k(    1) = (   0.0000000   0.0000000   0.0000000), wk =   0.2222222
        k(    2) = (   0.0000000   0.3849001   0.0000000), wk =   0.4444444
        k(    3) = (   0.3333333   0.0000000   0.0000000), wk =   0.4444444
        k(    4) = (   0.3333333   0.3849001   0.0000000), wk =   0.8888889

     Check: negative core charge=   -0.000008

     Initial potential from superposition of free atoms

     starting charge     999.9705, renormalised to    1000.0000

     negative rho (up, down):  1.171E-01 0.000E+00
     Starting wfcs are  950 randomized atomic wfcs
     Checking if some PAW data can be deallocated...

     Self-consistent Calculation

     iteration #  1     ecut=    51.45 Ry     beta= 0.70
     Davidson diagonalization with overlap
     ethr =  1.00E-02,  avg # of iterations =  9.8

     negative rho (up, down):  2.214E-01 0.000E+00

     total energy              =   -5068.70019679 Ry
     estimated scf accuracy    <      51.61899698 Ry

[...]

     iteration #  7     ecut=    51.45 Ry     beta= 0.70
     Davidson diagonalization with overlap
     c_bands:  1 eigenvalues not converged
     ethr =  2.83E-07,  avg # of iterations = 18.5

[...]

     total energy              =   -5087.22995369 Ry
     estimated scf accuracy    <       0.00001276 Ry

     iteration # 11     ecut=    51.45 Ry     beta= 0.70
     Davidson diagonalization with overlap
     ethr =  1.28E-09,  avg # of iterations =  5.0

     negative rho (up, down):  2.835E-01 0.000E+00

     End of self-consistent calculation

          k = 0.0000 0.0000 0.0000 (685333 PWs)   bands (ev):

   -24.1758 -24.1752 -24.1751 -24.1745 -24.1743 -24.1707 -24.1705 -24.1704
   -24.1702 -24.1701 -24.1700 -24.1696 -24.1694 -24.1694 -24.1692 -24.1625
   -24.1623 -24.1623 -24.1621 -24.1619 -24.1619 -24.1617 -24.1615 -24.1614
   -24.1612 -23.2432 -23.0994 -23.0994 -23.0519 -23.0515 -22.9098 -22.9098
   -22.9094 -22.9094 -22.6763 -22.6763 -22.4931 -22.4931 -22.4928 -22.4928
   -22.4926 -22.4926 -22.3563 -22.3563 -22.3563 -22.3563 -22.0016 -22.0016
   -21.9610 -21.9610 -21.9609 -21.9609 -21.8340 -21.8340 -21.8336 -21.8336
   -21.6303 -21.6303 -21.5054 -21.5054 -21.5054 -21.5054 -21.3542 -21.3542
   -21.3542 -21.3542 -21.1504 -21.1504 -21.1503 -21.1503 -21.1503 -21.1503
   -21.0201 -21.0201 -21.0197 -21.0197 -20.6654 -20.6652 -20.6633 -20.6633
   -20.6633 -20.6633 -20.6466 -20.6466 -20.6466 -20.6466 -20.5570 -20.5570
   -20.5568 -20.5568 -20.2899 -20.2743 -20.2704 -20.2704 -20.2703 -20.2703
   -20.2442 -20.2438 -20.2340 -20.2336 -20.2018 -20.2018 -20.2018 -20.2018
   -20.1764 -20.1764 -20.1649 -20.1649 -20.1550 -20.0661 -20.0661 -19.9288
   -19.9288 -19.9286 -19.9286 -19.8281 -19.8281 -19.8259 -19.8259 -19.8256
   -19.8256 -19.6872 -19.6872 -19.5979 -19.5979 -14.4657 -14.3821 -14.3821
   -14.3788 -14.3788 -14.3502 -14.3502 -14.1369 -14.1369 -14.1369 -14.1369
   -14.0134 -14.0134 -14.0133 -14.0133 -14.0128 -14.0128 -13.7770 -13.7763
   -13.7734 -13.7728 -13.6389 -13.6389 -13.6389 -13.6389 -13.6386 -13.6378
   -13.5681 -13.5681 -13.5584 -13.5584 -13.5576 -13.5576 -13.5508 -13.5508
   -13.5346 -13.5346 -13.5342 -13.5342 -13.3811 -13.3811 -13.3804 -13.3804
   -13.1828 -13.1754 -13.1101 -13.1101 -13.1101 -13.1101 -12.7348 -12.7348
   -12.7343 -12.7343 -12.6224 -12.6224 -12.4102 -12.4102 -12.2765 -12.2765
   -12.2765 -12.2765 -12.0780 -12.0780 -12.0780 -12.0780 -12.0756 -12.0756
   -12.0372 -12.0369 -12.0352 -12.0350 -12.0349 -12.0348 -12.0245 -12.0244
   -12.0243 -12.0242 -11.9457 -11.9456 -11.9455 -11.9454 -11.9360 -11.9358
   -11.9353 -11.9352 -11.9351 -11.9351 -11.8778 -11.8778 -11.8770 -11.8770
   -11.8728 -11.8706 -11.8705 -11.8689 -11.8688 -11.7719 -11.7719 -11.7718
   -11.7718 -11.7560 -11.7560 -11.4998 -11.4998 -11.4994 -11.4994 -11.4987
   -11.4987 -11.4544 -11.4467 -11.2322 -11.2322 -11.2318 -11.2318 -11.2033
   -11.2033 -11.2029 -11.2029 -10.8455 -10.7637 -10.7637 -10.7636 -10.7636
   -10.7125 -10.7116 -10.7073 -10.7063 -10.6527 -10.6527 -10.5836 -10.5832
   -10.5544 -10.5544 -10.4743 -10.4743 -10.4743 -10.4743 -10.3936 -10.3936
   -10.3933 -10.3933 -10.3017 -10.3017 -10.3017 -10.3017 -10.3017 -10.3017
   -10.2613 -10.2613 -10.2078 -10.2078 -10.2078 -10.2078 -10.0860 -10.0860
   -10.0477 -10.0477 -10.0473 -10.0473  -9.8480  -9.8479  -9.8426  -9.8426
    -9.8359  -9.8359  -9.8356  -9.8356  -9.8246  -9.8245  -9.7853  -9.7853
    -9.7844  -9.7844  -9.7828  -9.7828  -9.7828  -9.7828  -9.7117  -9.6415
    -9.6415  -9.6415  -9.6415  -9.5729  -9.5729  -9.5726  -9.5726  -9.5709
    -9.5708  -9.5071  -9.5070  -9.5070  -9.5069  -9.5069  -9.5067  -9.4276
    -9.4276  -9.4276  -9.4276  -9.2410  -9.2410  -9.2410  -9.2410  -9.1695
    -9.1695  -9.1114  -9.1114  -9.1114  -9.1114  -9.0921  -9.0921  -8.9906
    -8.9906  -8.9906  -8.9906  -8.9389  -8.9389  -8.9386  -8.9386  -8.9259
    -8.9258  -8.9045  -8.9045  -8.8669  -8.8669  -8.8661  -8.8661  -8.6521
    -8.6521  -8.4961  -8.4961  -8.4961  -8.4961  -8.4872  -8.4872  -8.4872
    -8.4872  -8.2993  -8.2993  -8.2992  -8.2992  -8.1977  -8.1976  -8.1974
    -8.1974  -8.1220  -8.1220  -8.0895  -8.0895  -8.0893  -8.0893  -8.0889
    -8.0889  -8.0490  -8.0490  -8.0489  -8.0488  -8.0338  -8.0336  -8.0335
    -8.0334  -7.9944  -7.9862  -7.9861  -7.9861  -7.9861  -7.9353  -7.9351
    -7.9239  -7.9238  -7.9237  -7.9236  -7.9115  -7.9112  -7.9111  -7.9110
    -7.9073  -7.9070  -7.8161  -7.8161  -7.7817  -7.7816  -7.7815  -7.7814
    -7.7013  -7.7013  -7.7010  -7.7009  -7.6917  -7.6913  -7.5436  -7.5436
    -7.5432  -7.5432  -7.4951  -7.4951  -7.2685  -7.2682  -7.2384  -7.2382
    -7.2358  -7.2358  -7.2358  -7.2358  -7.2186  -7.2186  -7.2186  -7.2186
    -7.1936  -7.1936  -7.0848  -7.0848  -7.0846  -7.0846  -6.9038  -6.9037
    -6.7036  -6.6913  -6.6714  -6.6714  -6.6712  -6.6712  -6.6335  -6.6331
    -6.6192  -6.6188  -6.5612  -6.5612  -6.5612  -6.5612  -6.5114  -6.5114
    -6.5059  -6.5059  -6.4733  -6.3401  -6.3401  -6.1592  -6.1592  -6.1590
    -6.1590  -6.0196  -6.0196  -6.0194  -6.0193  -5.9958  -5.9957  -5.9663
    -5.9662  -5.9555  -5.9554  -5.9508  -5.9507  -5.9506  -5.9505  -5.9326
[...]
     2.6545   2.6545   2.7165   2.7165   2.7166   2.7166   2.7170   2.7170
     2.7392   2.7394   2.7425   2.7425   2.7432   2.7432   2.7899   2.7899
     2.7905   2.7905   2.8293   2.8293   2.8300   2.8300   2.9331   2.9331
     2.9332   2.9332   2.9399   2.9399   2.9766   2.9766   2.9768   2.9768
     3.0909   3.0910   3.1547   3.1547   3.1660   3.1855   3.1856   3.2043
     3.2045   3.2135   3.2135   3.2135   3.2135   3.2157   3.2157   3.2161
     3.2161   3.2672   3.2672   3.2673   3.2673   3.3303   3.3305   3.3580
     3.3580   3.3583   3.3583   3.3694   3.3694   3.3695   3.3695   3.4005
     3.4005   3.4214   3.4336   3.4336   3.4338   3.4338   3.4402   3.4404
     3.4736   3.4736   3.4741   3.4741   3.5280   3.5280   3.5281   3.5281
     3.5332   3.5334   3.5916   3.5916   3.6238   3.6239   3.6290   3.6290
     3.6292   3.6293   3.6421   3.6421   3.6452   3.6452   3.6453   3.6454
     3.6979   3.6979   3.6980   3.6980   3.6991   3.6992   3.6993   3.6993
     3.7206   3.7206   3.7207   3.7208   3.7211   3.7211   3.7510   3.7516
     3.7538

[...]

          k = 0.3333 0.3849 0.0000 (685362 PWs)   bands (ev):

   -24.1751 -24.1749 -24.1743 -24.1740 -24.1737 -24.1732 -24.1730 -24.1724
   -24.1722 -24.1718 -24.1675 -24.1673 -24.1669 -24.1667 -24.1664 -24.1646
   -24.1644 -24.1641 -24.1639 -24.1635 -24.1611 -24.1609 -24.1606 -24.1604
   -24.1601 -23.2058 -23.1578 -23.1419 -23.0941 -22.9674 -22.9044 -22.8887
   -22.8417 -22.8262 -22.7639 -22.7018 -22.6555 -22.6554 -22.5179 -22.4720
   -22.4584 -22.3984 -22.3366 -22.2298 -22.2184 -22.1739 -22.1713 -22.1615
   -21.9983 -21.9876 -21.9413 -21.9290 -21.8857 -21.8695 -21.7727 -21.7154
   -21.7145 -21.6613 -21.5912 -21.5419 -21.4529 -21.4302 -21.3809 -21.3452
   -21.3020 -21.2890 -21.2741 -21.2489 -21.1893 -21.0971 -21.0888 -21.0458
   -20.9790 -20.9612 -20.9235 -20.9214 -20.8383 -20.8016 -20.7742 -20.7099
   -20.7041 -20.7033 -20.6694 -20.6607 -20.5653 -20.5480 -20.5446 -20.5221
   -20.5183 -20.4206 -20.4179 -20.3898 -20.3571 -20.3564 -20.3454 -20.2759
   -20.2504 -20.2328 -20.2282 -20.2234 -20.2133 -20.1807 -20.1635 -20.1388
   -20.1334 -20.0805 -20.0585 -20.0570 -20.0370 -20.0367 -20.0364 -20.0334
   -19.9750 -19.9608 -19.9592 -19.9378 -19.8633 -19.8400 -19.8316 -19.7929
   -19.7028 -19.6993 -19.6977 -19.6268 -19.6086 -14.4276 -14.3652 -14.3529
   -14.3259 -14.3156 -14.3027 -14.2824 -14.2019 -14.1688 -14.1687 -14.1629
   -14.0672 -14.0617 -14.0339 -14.0336 -13.9549 -13.9393 -13.9053 -13.8276
   -13.8151 -13.7987 -13.7844 -13.7742 -13.7388 -13.7147 -13.7146 -13.7004
   -13.6591 -13.6574 -13.6399 -13.6255 -13.6234 -13.6180 -13.5545 -13.5524
   -13.4971 -13.4901 -13.4567 -13.3047 -13.2133 -13.2052 -13.0782 -13.0585
   -13.0585 -13.0424 -12.9958 -12.9750 -12.9748 -12.9703 -12.9312 -12.8478
   -12.7036 -12.6044 -12.6037 -12.5970 -12.4846 -12.4591 -12.4467 -12.4380
   -12.4369 -12.4230 -12.4229 -12.2663 -12.2659 -12.1361 -12.1092 -12.1090
   -12.0906 -12.0497 -12.0490 -12.0468 -12.0457 -12.0440 -12.0063 -12.0058
   -12.0042 -12.0041 -12.0034 -11.9912 -11.9882 -11.9725 -11.9720 -11.9708
   -11.9705 -11.9688 -11.9538 -11.9111 -11.9038 -11.9031 -11.9013 -11.8996
   -11.8942 -11.8815 -11.8793 -11.8781 -11.8753 -11.8580 -11.7642 -11.6985
   -11.6728 -11.6626 -11.6253 -11.4389 -11.4202 -11.4015 -11.3713 -11.3711
   -11.3542 -11.2616 -11.2318 -11.1902 -11.1886 -11.0582 -11.0395 -11.0343
   -11.0286 -10.9761 -10.9760 -10.9470 -10.8862 -10.8851 -10.8653 -10.8399
   -10.8307 -10.7946 -10.7615 -10.7304 -10.7195 -10.7065 -10.6430 -10.6147
   -10.6095 -10.6094 -10.6011 -10.5798 -10.5341 -10.4854 -10.4751 -10.4385
   -10.3890 -10.3698 -10.3628 -10.3622 -10.3492 -10.3492 -10.3108 -10.2993
   -10.2859 -10.2556 -10.2347 -10.2008 -10.1125 -10.1086 -10.1021 -10.0499
   -10.0465 -10.0133 -10.0121  -9.9780  -9.9710  -9.9435  -9.9252  -9.8743
    -9.8740  -9.8737  -9.8655  -9.8560  -9.8226  -9.8210  -9.8006  -9.7990
    -9.7928  -9.7711  -9.7542  -9.7155  -9.6925  -9.6883  -9.6853  -9.6841
    -9.6576  -9.6504  -9.6187  -9.6159  -9.5998  -9.5982  -9.5577  -9.5465
    -9.5103  -9.4757  -9.4687  -9.4531  -9.4445  -9.4293  -9.4289  -9.4154
    -9.4002  -9.3933  -9.3930  -9.3894  -9.3496  -9.3208  -9.2909  -9.2875
    -9.2193  -9.1577  -9.1563  -9.1560  -9.1071  -9.0782  -9.0743  -9.0572
    -8.9992  -8.9992  -8.9990  -8.9852  -8.9062  -8.8948  -8.8605  -8.8435
    -8.7848  -8.7704  -8.7288  -8.7271  -8.7257  -8.7033  -8.6663  -8.6654
    -8.6048  -8.6012  -8.6009  -8.5625  -8.4785  -8.4708  -8.4701  -8.4409
    -8.4311  -8.4145  -8.4098  -8.3525  -8.3243  -8.3075  -8.2834  -8.2831
    -8.2780  -8.2418  -8.2413  -8.2095  -8.1849  -8.1661  -8.1315  -8.1307
    -8.0758  -8.0147  -8.0072  -8.0064  -7.9978  -7.9967  -7.9962  -7.9912
    -7.9780  -7.9779  -7.9428  -7.9358  -7.9316  -7.9282  -7.9278  -7.9271
    -7.9256  -7.9225  -7.9224  -7.9195  -7.9095  -7.9088  -7.9085  -7.9007
    -7.8970  -7.8840  -7.8765  -7.8578  -7.8474  -7.8442  -7.7351  -7.7200
    -7.6875  -7.6822  -7.6772  -7.6484  -7.6416  -7.5969  -7.5858  -7.5601
    -7.5189  -7.5152  -7.4808  -7.4318  -7.4288  -7.3927  -7.3293  -7.3028
    -7.2971  -7.2940  -7.2682  -7.2495  -7.2334  -7.2006  -7.1086  -7.0971
    -7.0823  -7.0771  -7.0731  -7.0657  -7.0438  -7.0307  -6.9800  -6.8909
    -6.8902  -6.8339  -6.7921  -6.7865  -6.7722  -6.6844  -6.6422  -6.6040
    -6.5989  -6.5865  -6.5639  -6.5158  -6.4968  -6.4667  -6.4630  -6.3757
    -6.3460  -6.3348  -6.3274  -6.3263  -6.3214  -6.3096  -6.2093  -6.2011
    -6.2003  -6.1633  -6.0733  -6.0483  -6.0259  -5.9958  -5.9727  -5.9716
    -5.9615  -5.9595  -5.9550  -5.9460  -5.9429  -5.9345  -5.9327  -5.9269
[...]
     2.6750   2.6972   2.6977   2.6991   2.7039   2.7376   2.7628   2.7815
     2.7840   2.7928   2.7959   2.8035   2.8066   2.8075   2.8081   2.8801
     2.8816   2.8862   2.8921   2.8947   2.9016   2.9040   2.9104   2.9297
     2.9351   2.9619   2.9640   2.9709   3.0009   3.0035   3.0053   3.0275
     3.0322   3.0344   3.0603   3.0627   3.1167   3.1537   3.1616   3.1710
     3.1721   3.1856   3.1941   3.1973   3.2018   3.2090   3.2140   3.2252
     3.2313   3.2483   3.2554   3.2600   3.2824   3.2867   3.2964   3.2982
     3.3090   3.3199   3.3382   3.3405   3.3487   3.3570   3.3675   3.3779
     3.3783   3.4067   3.4200   3.4301   3.4389   3.4660   3.4790   3.4797
     3.4875   3.5033   3.5059   3.5143   3.5313   3.5377   3.5416   3.5431
     3.5754   3.5777   3.5833   3.5912   3.5915   3.5924   3.6028   3.6031
     3.6141   3.6184   3.6189   3.6228   3.6267   3.6288   3.6348   3.6478
     3.6484   3.6727   3.6737   3.6758   3.6795   3.6891   3.7075   3.7158
     3.7231   3.7318   3.7410   3.7570   3.7777   3.7808   3.7844   3.7880
     3.7919

     highest occupied, lowest unoccupied level (ev):    -5.5633   -1.0730

!    total energy              =   -5087.22995814 Ry
     total all-electron energy =    -19762.216545 Ry
     estimated scf accuracy    <       0.00000093 Ry

     The total energy is the sum of the following terms:
     one-electron contribution =  -46353.73814261 Ry
     hartree contribution      =   23360.59125543 Ry
     xc contribution           =   -1104.23381009 Ry
     ewald contribution        =   20567.86056732 Ry
     one-center paw contrib.   =   -1557.70982819 Ry

     convergence has been achieved in  11 iterations

     Writing all to output data dir ./hBN_water_Oup_Hdown.save/

     General routines

     Parallel routines

   This run was terminated on:   0:42:30  21Oct2022

   JOB DONE.