     Program PWSCF v.7.1 starts on 25Oct2022 at 20: 0:47
        Git branch: HEAD
        Last git commit: 564a7b486665e8dd0223d6e514b84195d1a96c10
        Last git commit date: Tue Jun 14 16:16:48 2022 +0000
        Last git commit subject: Merge branch 'update_version_number' into 'develop

     Reading input from scf.in

     Current dimensions of program PWSCF are:
     Max number of different atomic species (ntypx) = 10
     Max number of k-points (npk) =  40000
     Max angular momentum in pseudopotentials (lmaxx) =  4
     file N.pbe-n-kjpaw_psl.1.0.0.UPF: wavefunction(s)  2S renormalized
     file O.pbe-n-kjpaw_psl.1.0.0.UPF: wavefunction(s)  2S 2P renormalized
     file H.pbe-kjpaw_psl.1.0.0.UPF: wavefunction(s)  1S renormalized
     Message from routine setup:
     using ibrav=0 with symmetry is DISCOURAGED, use correct ibrav instead

     R & G space division:  proc/nbgrp/npool/nimage =     128
     Subspace diagonalization in iterative solution of the eigenvalue problem:
     one sub-group per band group will be used

     Using Slab Decomposition

     bravais-lattice index     =            0
     lattice parameter (alat)  =      75.7265  a.u.
     unit-cell volume          =  281543.9584 (a.u.)^3
     number of atoms/cell      =          515
     number of atomic types    =            4
     number of electrons       =      2056.00
     number of Kohn-Sham states=         1049
     kinetic-energy cutoff     =      51.4490  Ry
     charge density cutoff     =     205.7961  Ry
     scf convergence threshold =      1.0E-06
     mixing beta               =       0.7000
     number of iterations used =            8  plain     mixing
     Exchange-correlation= SLA  PW   PBX  PBC
                           (   1   4   3   4   0   0   0)

     celldm(1)=  75.726466  celldm(2)=   0.000000  celldm(3)=   0.000000
     celldm(4)=   0.000000  celldm(5)=   0.000000  celldm(6)=   0.000000

     crystal axes: (cart. coord. in units of alat)
               a(1) = (   1.000000   0.000000   0.000000 )
               a(2) = (   0.000000   0.866026   0.000000 )
               a(3) = (   0.000000   0.000000   0.748639 )

     reciprocal axes: (cart. coord. in units 2 pi/alat)
               b(1) = (  1.000000  0.000000  0.000000 )
               b(2) = (  0.000000  1.154700  0.000000 )
               b(3) = (  0.000000  0.000000  1.335757 )

     PseudoPot. # 1 for B  read from file:
     ./B.pbe-n-kjpaw_psl.1.0.0.UPF
     MD5 check sum: 8c825a5969375aca5c2c6ad5945b3059
     Pseudo is Projector augmented-wave + core cor, Zval =  3.0
     Generated using &quot;atomic&quot; code by A. Dal Corso  v.6.3
     Shape of augmentation charge: PSQ
     Using radial grid of 1059 points,  4 beta functions with:
                l(1) =   0
                l(2) =   0
                l(3) =   1
                l(4) =   1
     Q(r) pseudized with 0 coefficients

     PseudoPot. # 2 for N  read from file:
     ./N.pbe-n-kjpaw_psl.1.0.0.UPF
     MD5 check sum: 14c48229446f9f2d411169a3abcbc3fa
     Pseudo is Projector augmented-wave + core cor, Zval =  5.0
     Generated using &quot;atomic&quot; code by A. Dal Corso  v.6.3
     Shape of augmentation charge: PSQ
     Using radial grid of 1085 points,  4 beta functions with:
                l(1) =   0
                l(2) =   0
                l(3) =   1
                l(4) =   1
     Q(r) pseudized with 0 coefficients

     PseudoPot. # 3 for O  read from file:
     ./O.pbe-n-kjpaw_psl.1.0.0.UPF
     MD5 check sum: e99d9cef9b487d1ca56f5b95ecd0fd7a
     Pseudo is Projector augmented-wave + core cor, Zval =  6.0
     Generated using &quot;atomic&quot; code by A. Dal Corso  v.6.3
     Shape of augmentation charge: PSQ
     Using radial grid of 1095 points,  4 beta functions with:
                l(1) =   0
                l(2) =   0
                l(3) =   1
                l(4) =   1
     Q(r) pseudized with 0 coefficients

     PseudoPot. # 4 for H  read from file:
     ./H.pbe-kjpaw_psl.1.0.0.UPF
     MD5 check sum: d81a744832360e4a8af0b0b5b123bc2a
     Pseudo is Projector augmented-wave, Zval =  1.0
     Generated using &quot;atomic&quot; code by A. Dal Corso  v.6.3MaX
     Shape of augmentation charge: PSQ
     Using radial grid of  929 points,  2 beta functions with:
                l(1) =   0
                l(2) =   0
     Q(r) pseudized with 0 coefficients

     atomic species   valence    mass     pseudopotential
        B              3.00    10.81100     B ( 1.00)
        N              5.00    14.00670     N ( 1.00)
        O              6.00    15.99900     O ( 1.00)
        H              1.00     1.00784     H ( 1.00)

      2 Sym. Ops. (no inversion) found ( 1 have fractional translation)

   Cartesian axes

     site n.     atom                  positions (alat units)
         1           B   tau(   1) = (   0.9687500   0.0180422   0.1497278  )
         2           B   tau(   2) = (   0.9687500   0.1262954   0.1497278  )
         3           B   tau(   3) = (   0.9687500   0.2345486   0.1497278  )
         4           B   tau(   4) = (   0.9687500   0.3428018   0.1497278  )
         5           B   tau(   5) = (   0.9687500   0.4510550   0.1497278  )
         6           B   tau(   6) = (   0.9687500   0.5593082   0.1497278  )
         7           B   tau(   7) = (   0.9687500   0.6675614   0.1497278  )
         8           B   tau(   8) = (   0.9687500   0.7758146   0.1497278  )
         9           B   tau(   9) = (   0.0937500   0.0180422   0.1497278  )
        10           B   tau(  10) = (   0.0937500   0.1262954   0.1497278  )
        11           B   tau(  11) = (   0.0937500   0.2345486   0.1497278  )
        12           B   tau(  12) = (   0.0937500   0.3428018   0.1497278  )
        13           B   tau(  13) = (   0.0937500   0.4510550   0.1497278  )
        14           B   tau(  14) = (   0.0937500   0.5593082   0.1497278  )
        15           B   tau(  15) = (   0.0937500   0.6675614   0.1497278  )
        16           B   tau(  16) = (   0.0937500   0.7758146   0.1497278  )
        17           B   tau(  17) = (   0.2187500   0.0180422   0.1497278  )
        18           B   tau(  18) = (   0.2187500   0.1262954   0.1497278  )
        19           B   tau(  19) = (   0.2187500   0.2345486   0.1497278  )
        20           B   tau(  20) = (   0.2187500   0.3428018   0.1497278  )
        21           B   tau(  21) = (   0.2187500   0.4510550   0.1497278  )
        22           B   tau(  22) = (   0.2187500   0.5593082   0.1497278  )
        23           B   tau(  23) = (   0.2187500   0.6675614   0.1497278  )
        24           B   tau(  24) = (   0.2187500   0.7758146   0.1497278  )
        25           B   tau(  25) = (   0.3437500   0.0180422   0.1497278  )
        26           B   tau(  26) = (   0.3437500   0.1262954   0.1497278  )
        27           B   tau(  27) = (   0.3437500   0.2345486   0.1497278  )
        28           B   tau(  28) = (   0.3437500   0.3428018   0.1497278  )
        29           B   tau(  29) = (   0.3437500   0.4510550   0.1497278  )
        30           B   tau(  30) = (   0.3437500   0.5593082   0.1497278  )
        31           B   tau(  31) = (   0.3437500   0.6675614   0.1497278  )
        32           B   tau(  32) = (   0.3437500   0.7758146   0.1497278  )
        33           B   tau(  33) = (   0.4687500   0.0180422   0.1497278  )
        34           B   tau(  34) = (   0.4687500   0.1262954   0.1497278  )
        35           B   tau(  35) = (   0.4687500   0.2345486   0.1497278  )
        36           B   tau(  36) = (   0.4687500   0.3428018   0.1497278  )
        37           B   tau(  37) = (   0.4687500   0.4510550   0.1497278  )
        38           B   tau(  38) = (   0.4687500   0.5593082   0.1497278  )
        39           B   tau(  39) = (   0.4687500   0.6675614   0.1497278  )
        40           B   tau(  40) = (   0.4687500   0.7758146   0.1497278  )
        41           B   tau(  41) = (   0.5937500   0.0180422   0.1497278  )
        42           B   tau(  42) = (   0.5937500   0.1262954   0.1497278  )
        43           B   tau(  43) = (   0.5937500   0.2345486   0.1497278  )
        44           B   tau(  44) = (   0.5937500   0.3428018   0.1497278  )
        45           B   tau(  45) = (   0.5937500   0.4510550   0.1497278  )
        46           B   tau(  46) = (   0.5937500   0.5593082   0.1497278  )
        47           B   tau(  47) = (   0.5937500   0.6675614   0.1497278  )
        48           B   tau(  48) = (   0.5937500   0.7758146   0.1497278  )
        49           B   tau(  49) = (   0.7187500   0.0180422   0.1497278  )
        50           B   tau(  50) = (   0.7187500   0.1262954   0.1497278  )
        51           B   tau(  51) = (   0.7187500   0.2345486   0.1497278  )
        52           B   tau(  52) = (   0.7187500   0.3428018   0.1497278  )
        53           B   tau(  53) = (   0.7187500   0.4510550   0.1497278  )
        54           B   tau(  54) = (   0.7187500   0.5593082   0.1497278  )
        55           B   tau(  55) = (   0.7187500   0.6675614   0.1497278  )
        56           B   tau(  56) = (   0.7187500   0.7758146   0.1497278  )
        57           B   tau(  57) = (   0.8437500   0.0180422   0.1497278  )
        58           B   tau(  58) = (   0.8437500   0.1262954   0.1497278  )
        59           B   tau(  59) = (   0.8437500   0.2345486   0.1497278  )
        60           B   tau(  60) = (   0.8437500   0.3428018   0.1497278  )
[...]
       501           N   tau( 501) = (   0.8125000   0.4690971   0.1497278  )
       502           N   tau( 502) = (   0.8125000   0.5773503   0.1497278  )
       503           N   tau( 503) = (   0.8125000   0.6856035   0.1497278  )
       504           N   tau( 504) = (   0.8125000   0.7938567   0.1497278  )
       505           N   tau( 505) = (   0.9375000   0.0360844   0.1497278  )
       506           N   tau( 506) = (   0.9375000   0.1443376   0.1497278  )
       507           N   tau( 507) = (   0.9375000   0.2525908   0.1497278  )
       508           N   tau( 508) = (   0.9375000   0.3608439   0.1497278  )
       509           N   tau( 509) = (   0.9375000   0.4690971   0.1497278  )
       510           N   tau( 510) = (   0.9375000   0.5773503   0.1497278  )
       511           N   tau( 511) = (   0.9375000   0.6856035   0.1497278  )
       512           N   tau( 512) = (   0.9375000   0.7938567   0.1497278  )
       513           O   tau( 513) = (   0.3750000   0.3247596   0.2243596  )
       514           H   tau( 514) = (   0.3750000   0.3436490   0.2097394  )
       515           H   tau( 515) = (   0.3750000   0.3058702   0.2097394  )

     number of k points=     4
                       cart. coord. in units 2pi/alat
        k(    1) = (   0.0000000   0.0000000   0.0000000), wk =   0.2222222
        k(    2) = (   0.0000000   0.3849001   0.0000000), wk =   0.4444444
        k(    3) = (   0.3333333   0.0000000   0.0000000), wk =   0.4444444
        k(    4) = (   0.3333333   0.3849001   0.0000000), wk =   0.8888889

     Check: negative core charge=   -0.000007

     Initial potential from superposition of free atoms

     starting charge    2055.9258, renormalised to    2056.0000

     negative rho (up, down):  2.271E-01 0.000E+00
     Starting wfcs are 2054 randomized atomic wfcs
     Checking if some PAW data can be deallocated...

     Self-consistent Calculation

     iteration #  1     ecut=    51.45 Ry     beta= 0.70
     Davidson diagonalization with overlap
     ethr =  1.00E-02,  avg # of iterations =  3.0

     negative rho (up, down):  5.922E-01 0.000E+00

     total energy              =  -10210.32012655 Ry
     estimated scf accuracy    <     109.01152804 Ry

[...]

     iteration #  4     ecut=    51.45 Ry     beta= 0.70
     Davidson diagonalization with overlap
     c_bands:  5 eigenvalues not converged
     c_bands:  4 eigenvalues not converged
     c_bands:  3 eigenvalues not converged
     ethr =  5.81E-05,  avg # of iterations = 20.8

[...]

     iteration #  7     ecut=    51.45 Ry     beta= 0.70
     Davidson diagonalization with overlap
     c_bands:  1 eigenvalues not converged
     c_bands:  3 eigenvalues not converged
     c_bands:  1 eigenvalues not converged
     c_bands:  4 eigenvalues not converged
     ethr =  7.04E-07,  avg # of iterations = 35.0

[...]

     total energy              =  -10249.32692380 Ry
     estimated scf accuracy    <       0.00000576 Ry

     iteration # 11     ecut=    51.45 Ry     beta= 0.70
     Davidson diagonalization with overlap
     ethr =  2.80E-10,  avg # of iterations =  3.2

     negative rho (up, down):  8.097E-01 0.000E+00

     End of self-consistent calculation

          k = 0.0000 0.0000 0.0000 (****** PWs)   bands (ev):

   -23.9782 -22.3441 -22.2886 -22.2711 -22.2564 -22.2562 -22.2065 -22.1998
   -22.1966 -22.1950 -22.1101 -22.1060 -22.0459 -22.0399 -22.0327 -22.0298
   -22.0290 -22.0279 -21.9798 -21.9793 -21.9730 -21.9725 -21.8353 -21.8317
   -21.8152 -21.8145 -21.8115 -21.8110 -21.7607 -21.7588 -21.7558 -21.7554
   -21.6728 -21.6721 -21.6179 -21.6173 -21.6100 -21.6100 -21.5457 -21.5442
   -21.5433 -21.5430 -21.4589 -21.4561 -21.4556 -21.4541 -21.4527 -21.4523
   -21.3875 -21.3859 -21.3826 -21.3820 -21.2017 -21.1996 -21.1957 -21.1954
   -21.1815 -21.1811 -21.1777 -21.1770 -21.1769 -21.1767 -21.1297 -21.1292
   -21.1226 -21.1225 -20.9931 -20.9922 -20.9768 -20.9759 -20.9728 -20.9727
   -20.9283 -20.9274 -20.9234 -20.9233 -20.8476 -20.8464 -20.8457 -20.8453
   -20.7370 -20.7352 -20.7352 -20.7345 -20.7288 -20.7285 -20.7271 -20.7271
   -20.6002 -20.5993 -20.5495 -20.5488 -20.5420 -20.5420 -20.4636 -20.4628
   -20.4334 -20.4312 -20.4303 -20.4296 -20.4096 -20.4083 -20.4060 -20.4055
   -20.4051 -20.4048 -20.4014 -20.4014 -20.4004 -20.4002 -20.3996 -20.3995
   -20.2401 -20.2394 -20.2386 -20.2384 -20.1802 -20.1792 -20.1776 -20.1774
   -20.0335 -20.0319 -20.0302 -20.0298 -19.9873 -19.9843 -19.9809 -19.9808
   -19.9789 -19.9788 -19.9391 -19.9375 -19.9318 -19.9309 -19.9039 -19.9031
   -19.8911 -19.8901 -19.8895 -19.8891 -19.8598 -19.8593 -19.8558 -19.8557
   -19.8097 -19.8078 -19.8056 -19.8049 -19.7400 -19.7393 -19.7380 -19.7379
   -19.6599 -19.6587 -19.6542 -19.6541 -19.6117 -19.6090 -19.6080 -19.6076
   -19.5791 -19.5783 -19.5768 -19.5766 -19.5631 -19.5628 -19.5595 -19.5594
   -19.4764 -19.4614 -19.4276 -19.4203 -19.4186 -19.4167 -19.3805 -19.3781
   -19.3712 -19.3693 -19.3675 -19.3669 -19.3657 -19.3649 -19.3563 -19.3562
   -19.3491 -19.3488 -19.3484 -19.3483 -19.3161 -19.3135 -19.3131 -19.3106
   -19.3100 -19.3080 -19.3057 -19.3048 -19.3045 -19.3045 -19.3040 -19.3039
   -19.2673 -19.2669 -19.2613 -19.2613 -19.2484 -19.2417 -19.2416 -19.2090
   -19.2040 -19.1770 -19.1766 -19.1747 -19.1745 -19.1474 -19.1442 -19.1390
   -19.1383 -19.1338 -19.1337 -19.1332 -19.1331 -19.1011 -19.0994 -19.0450
   -19.0444 -19.0428 -19.0426 -18.9975 -18.9969 -18.9953 -18.9951 -18.9725
   -18.9715 -18.9629 -18.9629 -18.9564 -18.9545 -18.9460 -18.9454 -18.9412
   -18.9410 -18.9395 -18.9395 -18.8109 -18.8097 -18.7996 -18.7995 -18.7808
   -18.7804 -18.7780 -18.7777 -18.7772 -18.7772 -18.7054 -18.7052 -18.6698
   -18.6696 -13.5602 -13.5565 -13.5563 -13.5108 -13.5027 -13.4451 -13.4450
   -13.4316 -13.4315 -13.4148 -13.4148 -13.4143 -13.4142 -13.3762 -13.3710
   -13.3484 -13.3483 -13.3410 -13.3410 -13.2552 -13.2552 -13.2537 -13.2534
   -13.2222 -13.2103 -13.1759 -13.1686 -13.1669 -13.1647 -13.1524 -13.1520
   -13.0868 -13.0863 -13.0831 -13.0830 -13.0578 -13.0574 -13.0567 -13.0539
   -13.0538 -13.0526 -13.0515 -13.0505 -13.0505 -13.0501 -13.0496 -13.0494
   -13.0198 -13.0198 -13.0174 -13.0174 -12.8910 -12.8898 -12.8848 -12.8825
   -12.8778 -12.8771 -12.8733 -12.8728 -12.8625 -12.8623 -12.8604 -12.8604
   -12.8592 -12.8591 -12.7854 -12.7854 -12.7823 -12.7823 -12.7011 -12.6985
   -12.6928 -12.6924 -12.6750 -12.6748 -12.6729 -12.6729 -12.6516 -12.6516
   -12.6509 -12.6509 -12.6339 -12.6338 -12.6050 -12.6049 -12.5981 -12.5979
   -12.5626 -12.5626 -12.5590 -12.5589 -12.5141 -12.5136 -12.5130 -12.5125
   -12.4180 -12.4178 -12.4167 -12.4165 -12.3295 -12.3268 -12.3199 -12.3198
   -12.3180 -12.3180 -12.2935 -12.2931 -12.2893 -12.2886 -12.2668 -12.2662
   -12.2661 -12.2654 -12.2652 -12.2650 -12.2270 -12.2264 -12.2246 -12.2239
   -12.1666 -12.1663 -12.1659 -12.1653 -11.9952 -11.9950 -11.9934 -11.9934
   -11.9517 -11.9511 -11.9463 -11.9462 -11.7963 -11.7802 -11.7658 -11.7294
   -11.7293 -11.7279 -11.7278 -11.7258 -11.7253 -11.7251 -11.7236 -11.6756
   -11.6744 -11.6396 -11.6390 -11.4291 -11.4287 -11.4279 -11.4279 -11.4152
   -11.4145 -11.4116 -11.4116 -11.2705 -11.2696 -11.2683 -11.2680 -11.2285
   -11.2279 -11.2241 -11.2237 -11.2208 -11.2206 -11.1702 -11.1700 -11.1380
   -11.1364 -11.1256 -11.1245 -11.1242 -11.1231 -11.1209 -11.1204 -11.1199
   -11.1191 -11.1189 -11.1187 -11.1101 -11.1101 -11.0989 -11.0989 -11.0962
   -11.0962 -11.0553 -11.0539 -11.0502 -11.0497 -10.8091 -10.8088 -10.7796
   -10.7791 -10.7787 -10.7784 -10.7654 -10.7650 -10.7611 -10.7611 -10.6354
   -10.6353 -10.6349 -10.6345 -10.5396 -10.5395 -10.5392 -10.5384 -10.5375
   -10.5374 -10.4538 -10.4536 -10.4531 -10.4530 -10.4231 -10.4212 -10.3952
   -10.3951 -10.3946 -10.3943 -10.3623 -10.3617 -10.3615 -10.3611 -10.3190
[...]
    -5.9898  -5.9893  -5.9101  -5.8971  -5.8593  -5.8490  -5.8394  -5.8361
    -5.8347  -5.7848  -5.7779  -5.7763  -5.7755  -5.7754  -5.7662  -5.7538
    -5.7473  -5.7463  -5.7442  -5.7438  -5.7393  -5.7391  -5.7160  -5.6841
    -5.6778  -5.6754  -5.6752  -5.6728  -5.6712  -5.6706  -5.6699  -5.6698
    -5.6694  -5.6694  -5.6544  -5.5998  -5.5932  -5.5929  -5.5903  -5.5649
    -5.5596  -5.5579  -5.5098  -5.5024  -5.4637  -5.4598  -5.4597  -5.4594
    -5.4298  -5.4244  -5.4216  -5.4198  -5.4165  -5.4160  -5.4149  -5.4147
    -5.3490  -5.3460  -5.2618  -5.2594  -5.2590  -5.2581  -5.1943  -5.1923
    -5.1918  -5.1911  -5.1556  -5.1522  -5.1461  -5.1459  -5.1315  -5.1284
    -5.1221  -5.1216  -5.1142  -5.1138  -5.1084  -5.1078  -4.8937  -4.8907
    -4.8828  -4.8825  -4.8522  -4.8510  -4.8461  -4.8460  -4.8459  -4.8457
    -4.7257  -4.7250  -4.6679  -4.6674  -0.1631  -0.0786  -0.0545  -0.0332
    -0.0251   0.0197   0.0425   0.0558   0.0694   0.0867   0.0924   0.1139
     0.1267   0.1349   0.1379   0.1384   0.1401   0.1461   0.1514   0.1526
     0.1733

[...]

          k = 0.3333 0.3849 0.0000 (****** PWs)   bands (ev):

   -23.9782 -22.3368 -22.2993 -22.2904 -22.2696 -22.2269 -22.1988 -22.1952
   -22.1732 -22.1646 -22.1421 -22.1213 -22.0988 -22.0952 -22.0436 -22.0270
   -22.0183 -21.9917 -21.9699 -21.9307 -21.9248 -21.9003 -21.8988 -21.8953
   -21.8284 -21.8249 -21.8057 -21.8035 -21.7774 -21.7733 -21.7327 -21.7111
   -21.7071 -21.6825 -21.6537 -21.6315 -21.5884 -21.5853 -21.5575 -21.5428
   -21.5218 -21.5174 -21.5084 -21.4908 -21.4646 -21.4254 -21.4233 -21.3941
   -21.3707 -21.3547 -21.3320 -21.3276 -21.3037 -21.2770 -21.2612 -21.2321
   -21.2164 -21.2118 -21.2092 -21.1875 -21.1497 -21.1461 -21.1229 -21.1202
   -21.0978 -21.0729 -21.0356 -20.9939 -20.9892 -20.9696 -20.9664 -20.9508
   -20.9386 -20.9019 -20.8532 -20.8361 -20.8319 -20.8158 -20.8000 -20.7965
   -20.7908 -20.7897 -20.7715 -20.7218 -20.7091 -20.7086 -20.6947 -20.6787
   -20.6594 -20.6477 -20.6416 -20.6392 -20.6144 -20.5806 -20.5370 -20.5327
   -20.4871 -20.4784 -20.4550 -20.4545 -20.4454 -20.4371 -20.3909 -20.3886
   -20.3644 -20.3495 -20.3254 -20.3065 -20.3049 -20.2742 -20.2727 -20.2588
   -20.2495 -20.2327 -20.1856 -20.1823 -20.1722 -20.1631 -20.1580 -20.1397
   -20.1310 -20.1211 -20.1011 -20.0863 -20.0668 -20.0640 -20.0564 -20.0366
   -20.0215 -20.0025 -20.0013 -19.9991 -19.9573 -19.9567 -19.9401 -19.9198
   -19.9018 -19.8995 -19.8717 -19.8427 -19.8390 -19.8087 -19.7904 -19.7699
   -19.7646 -19.7641 -19.7398 -19.7174 -19.7133 -19.7114 -19.6976 -19.6708
   -19.6542 -19.6515 -19.6444 -19.6275 -19.6213 -19.6202 -19.6161 -19.6141
   -19.6113 -19.5896 -19.5646 -19.5424 -19.5404 -19.5386 -19.5311 -19.5219
   -19.5199 -19.5153 -19.5014 -19.4987 -19.4932 -19.4901 -19.4663 -19.4479
   -19.4436 -19.4086 -19.3988 -19.3950 -19.3760 -19.3652 -19.3626 -19.3606
   -19.3502 -19.3481 -19.3378 -19.3377 -19.3372 -19.3240 -19.3114 -19.2903
   -19.2866 -19.2805 -19.2750 -19.2679 -19.2618 -19.2519 -19.2507 -19.2387
   -19.2377 -19.2245 -19.2185 -19.2149 -19.2093 -19.2068 -19.2020 -19.2006
   -19.1993 -19.1987 -19.1919 -19.1915 -19.1684 -19.1611 -19.1479 -19.1420
   -19.1418 -19.1346 -19.1338 -19.1279 -19.1246 -19.0957 -19.0933 -19.0853
   -19.0772 -19.0708 -19.0674 -19.0626 -19.0610 -19.0589 -19.0247 -19.0028
   -18.9761 -18.9594 -18.9560 -18.9450 -18.9243 -18.9182 -18.9150 -18.9117
   -18.9113 -18.8698 -18.8620 -18.8536 -18.8514 -18.8429 -18.8349 -18.8085
   -18.7876 -18.7660 -18.7636 -18.7515 -18.7186 -18.7121 -18.7098 -18.6810
   -18.6738 -13.5438 -13.5273 -13.5197 -13.4996 -13.4991 -13.4895 -13.4820
   -13.4355 -13.4235 -13.4184 -13.4012 -13.4000 -13.3885 -13.3871 -13.3725
   -13.3375 -13.3348 -13.3281 -13.3204 -13.3072 -13.2992 -13.2824 -13.2784
   -13.2724 -13.2693 -13.2337 -13.2195 -13.2070 -13.2013 -13.1709 -13.1677
   -13.1465 -13.1151 -13.1005 -13.0995 -13.0940 -13.0879 -13.0672 -13.0557
   -13.0357 -13.0348 -13.0164 -13.0153 -12.9670 -12.9624 -12.9559 -12.9533
   -12.9471 -12.9430 -12.9397 -12.9346 -12.9170 -12.8995 -12.8973 -12.8824
   -12.8799 -12.8658 -12.8619 -12.8591 -12.8145 -12.7940 -12.7877 -12.7872
   -12.7773 -12.7762 -12.7757 -12.7515 -12.7410 -12.7361 -12.7272 -12.7257
   -12.7165 -12.7136 -12.6943 -12.6882 -12.6733 -12.6713 -12.6693 -12.6668
   -12.6651 -12.6592 -12.6473 -12.6428 -12.6298 -12.6289 -12.6169 -12.6059
   -12.6034 -12.5865 -12.5774 -12.5732 -12.5696 -12.5681 -12.5610 -12.5560
   -12.5440 -12.5416 -12.5078 -12.4787 -12.4704 -12.4662 -12.4540 -12.4191
   -12.4127 -12.4106 -12.4039 -12.4011 -12.3888 -12.3584 -12.3055 -12.2407
   -12.2342 -12.2212 -12.2104 -12.1248 -12.1113 -12.1005 -12.0758 -12.0383
   -12.0260 -11.9868 -11.9535 -11.9326 -11.9266 -11.9183 -11.9154 -11.9048
   -11.8928 -11.8803 -11.8777 -11.8646 -11.8621 -11.8421 -11.8073 -11.7867
   -11.7791 -11.7644 -11.7599 -11.7188 -11.6513 -11.6358 -11.6133 -11.6121
   -11.6049 -11.6010 -11.5564 -11.5519 -11.5360 -11.5340 -11.5331 -11.5233
   -11.5179 -11.5168 -11.5118 -11.5055 -11.5049 -11.4690 -11.4303 -11.4219
   -11.3555 -11.3240 -11.3172 -11.3091 -11.3077 -11.3014 -11.2563 -11.2109
   -11.2105 -11.1583 -11.1492 -11.1482 -11.1436 -11.1140 -11.0769 -11.0714
   -11.0679 -11.0037 -10.9997 -10.9545 -10.9208 -10.9193 -10.9044 -10.8911
   -10.8897 -10.8781 -10.8575 -10.8499 -10.8490 -10.8334 -10.7910 -10.7779
   -10.7751 -10.7193 -10.7113 -10.7031 -10.6866 -10.6847 -10.6838 -10.6818
   -10.6681 -10.6668 -10.6578 -10.6509 -10.6445 -10.6079 -10.5768 -10.5747
   -10.5592 -10.5560 -10.5387 -10.5095 -10.4860 -10.4181 -10.4019 -10.3697
   -10.3652 -10.3641 -10.3573 -10.3478 -10.3294 -10.3277 -10.3265 -10.2820
[...]
    -6.0101  -6.0044  -6.0021  -5.9888  -5.9726  -5.9631  -5.9586  -5.9499
    -5.9193  -5.8972  -5.8775  -5.8348  -5.8152  -5.8090  -5.7846  -5.7665
    -5.7639  -5.7613  -5.7372  -5.7284  -5.7254  -5.7180  -5.7142  -5.7106
    -5.6905  -5.6662  -5.6505  -5.6251  -5.6212  -5.6153  -5.6041  -5.5991
    -5.5757  -5.5750  -5.5626  -5.5501  -5.5392  -5.5294  -5.5267  -5.5240
    -5.5185  -5.5138  -5.5130  -5.5078  -5.5033  -5.4963  -5.4951  -5.4513
    -5.4361  -5.4264  -5.4233  -5.4189  -5.4161  -5.4157  -5.3877  -5.3859
    -5.3447  -5.3428  -5.3323  -5.3180  -5.3144  -5.3137  -5.3082  -5.2944
    -5.2847  -5.2340  -5.2122  -5.1626  -5.1392  -5.1233  -5.1180  -5.0824
    -5.0687  -5.0675  -5.0588  -5.0581  -4.9879  -4.9796  -4.9697  -4.9682
    -4.9551  -4.9408  -4.8944  -4.8604  -4.8280  -4.8220  -4.8032  -4.7457
    -4.7382  -4.7354  -4.6869  -4.6742  -0.1419  -0.1046  -0.0885  -0.0570
     0.0141   0.0362   0.0496   0.0679   0.0806   0.0869   0.0934   0.1024
     0.1127   0.1243   0.1294   0.1463   0.1522   0.1617   0.1667   0.1699
     0.1740

     highest occupied, lowest unoccupied level (ev):    -4.6528   -0.1631

!    total energy              =  -10249.32692490 Ry
     total all-electron energy =    -40959.939051 Ry
     estimated scf accuracy    <       0.00000009 Ry

     The total energy is the sum of the following terms:
     one-electron contribution =  -90199.75499728 Ry
     hartree contribution      =   45511.30455540 Ry
     xc contribution           =   -2267.20312604 Ry
     ewald contribution        =   40090.03958496 Ry
     one-center paw contrib.   =   -3383.71294194 Ry

     convergence has been achieved in  11 iterations

     Writing all to output data dir ./hBN_water_Oup_Hdown.save/

     General routines

     Parallel routines

   This run was terminated on:   2:12:59  26Oct2022

   JOB DONE.